225 401
22
3 23 89
2 4 24
3 5 25
4 6 26
5 7 27
6 8 28
7 29
10 30
9 11 31
10 12 32
11 13 33
12 14 34
13 15 35
14 16 36
15 17 37
16 18 38
17 19 24 39
18 20 40
19 21 41
20 42
1 23 43
2 22 24 44
3 18 23 25 45
4 24 26 46
5 25 27 47
6 26 28 48
7 27 29 49
8 28 30
9 29 31 51
10 30 32 52
11 31 33 53
12 32 34 54
13 33 35 55
14 34 36 56
15 35 37
16 36 38 58
17 37 39 59
18 38 40 60
19 39 41
20 40 42 62
21 41 63
22 44 64 173
23 43 45 65
24 44 46 66
25 45 47 67
26 46 48 68
27 47 49 69
28 48 50 70
49 51 71
30 50 52 72
31 51 53 73
32 52 54 74
33 53 55
34 54 56
35 55 57 77
56 58 78
37 57 59 79
38 58 60 80
39 59 61 81
60 62 82
41 61 63 83
42 62 84
43 65 85
44 64 66 86
45 65 67 87
46 66 68 88
47 67 69 89
48 68 70 90
49 69 71 91
50 70 72 92
51 71 73 93
52 72 74 94
53 73 75 95
74 76 96
75 77 97
56 76 98
57 79 99
58 78 80 100
59 79 81 101
60 80 82 102
61 81 83 103
62 82 84 104
63 83 105
64 86 106
65 85 87 107
66 86 88 108
67 87 89 109
2 68 88 90 110
69 89 91 111
70 90 92 112
71 91 93 113
72 92 94 114
73 93 95 115
74 94 96 116
75 95 97 117
76 96 98 118
77 97 99 119
78 98 100
79 99 101 121
80 100 122
81 103 123
82 102 104 124
83 103 105 125
84 104 126
85 107 127
86 106 108 128
87 107 109 129
88 108 130
89 111 131
90 110 112 132
91 111 113 133
92 112 114 134
93 113 115 135
94 114 116 136
95 115 117 137
96 116 118 138
97 117 119 139
98 118 120 140
119 121 141
100 120 122 142
101 121 123 143
102 122 144
103 125 145
104 124 126 146
105 125 147
106 128 148
107 127 129 149
108 128 130 150
109 129 131 151
110 130 132 152
111 131 133 153
112 132 134 154
113 133 135 155
114 134 136 156
115 135 137 157
116 136 138 158
117 137 139
118 138 140 160
119 139 141 161
120 140 142 162
121 141
122 144 164
123 143 145 165
124 144 146 166
125 145 147 167
126 146 168
127 149 169
128 148 150
129 149 151 171
130 150 172
131 153 173
132 152 154 174
133 153 155 175
134 154 156 176
135 155 157 177
136 156 158 178
137 157 159 179
158 160 180
139 159 161 181
140 160 162 182
141 161 163 183
162 164 184
143 163 165
144 164 166 186
145 165 167 187
146 166 168 188
147 167 189
148 170 190
169 171 191
150 170 172 192
151 171 173 193
43 152 172 174 194
153 173 175 195
154 174 176 196
155 175 177 197
156 176 178 198
157 177 179 199
158 178 180 200
159 179 181 201
160 180 182 202
161 181 183 203
162 182 184 204
163 183 185 205
184 186 206
165 185 187 207
166 186 208
167 189 209
168 188 210
169 191 211
170 190 192 212
171 191 193 213
172 192 194 214
173 193 195 215
174 194 196 216
175 195 197 217
176 196 198 218
177 197 199 219
178 198 200 220
179 199 201 221
180 200 202 222
181 201 203 223
182 202 204 224
183 203 205 225
184 204 206
185 205 207
186 206 208
187 207 209
188 208 210
189 209
190 212
191 211 213
192 212 214
193 213 215
194 214 216
195 215 217
196 216 218
197 217
198 220
199 219 221
200 220 222
201 221 223
202 222 224
203 223 225
204 224
