184 1909
2 7 10 13 17 22 23 24 29 30 32 35 38 41 42 46 47 49 53 54 60 62 78 161
1 6 13 15 20 27 29 32 35 39 49 52 57 60 61 66 67 70 74 79 173
4 6 7 10 13 14 32 35 36 37 40 44 45 50 53 54 57 58 60 61 62 72 77 80
3 5 13 15 20 21 28 33 39 40 45 48 52 63 68 69 71 72 74
4 9 10 15 18 19 20 22 28 32 42 44 45 57 58 61 64 67 68 72 76
2 3 12 17 20 24 28 32 34 36 37 39 40 41 44 45 48 50 51 61 63 66 78 80
1 3 8 15 17 20 21 22 30 32 37 42 48 51 52 54 63 65 68 70 71 74 75 78
7 15 20 22 23 25 26 29 30 32 33 35 36 37 39 43 49 52 54 64 66 72 76 78
5 10 12 19 22 23 27 28 32 33 35 39 44 47 49 53 54 59 64 69 70
1 3 5 9 15 17 19 22 23 31 36 37 43 45 50 51 55 58 61 63 66 67 74 75
14 23 24 32 40 41 44 45 46 48 51 53 56 57 58 63 64 66 67 72 73 77 78
6 9 16 20 21 24 28 35 36 38 39 42 46 50 51 53 58 60 61 63 65 67 72 75 78
1 2 3 4 14 20 21 24 26 27 29 30 31 36 38 47 57 58 63 73 79
3 11 13 18 26 28 39 43 44 45 48 62 63 66 73 75
2 4 5 7 8 10 18 19 20 22 27 31 33 37 39 45 47 48 53 54 55 63 67 72 77 78 79 80
12 18 19 20 25 30 32 38 39 40 47 51 53 55 56 69 79
1 6 7 10 20 22 23 27 29 38 40 41 42 43 44 45 46 49 58 60 65 73 75 78
5 14 15 16 20 25 32 37 44 47 50 58 62 67 73 78 80
5 9 10 15 16 20 21 22 23 26 33 34 36 39 40 46 48 56 57 64 65 66 69 70 75
2 4 5 6 7 8 12 13 15 16 17 18 19 21 24 26 29 31 33 35 36 43 56 59 61 65 67 68 69
4 7 12 13 19 20 27 32 34 35 36 38 40 41 42 43 47 53 56 60 61 63 67 70 71 73 74 75 76 80
1 5 7 8 9 10 15 17 19 23 27 33 37 41 44 49 53 54 57 60 62 65 66 67 68 72 74 75 80
1 8 9 10 11 17 19 22 28 31 44 46 47 49 50 51 52 55 57 61 62 65 67 68 70 72
1 6 11 12 13 20 25 26 30 34 38 46 47 48 50 51 55 56 57 61 63 74 75 76 80
8 16 18 24 30 34 41 42 44 47 48 50 52 61 62 63 70 75
8 13 14 19 20 24 27 32 33 36 40 41 43 57 58 67 70 73 76 78
2 9 13 15 17 21 22 26 28 29 31 33 36 37 39 40 42 46 47 48 49 50 51 62 65 66 70 71 74 75 79
4 5 6 9 12 14 23 27 32 34 45 50 52 54 55 58 62 63 64 69 73 76 80
1 2 8 13 17 20 27 31 34 35 46 48 50 53 54 55 57 61 66 67 69 74
1 7 8 13 16 24 25 32 33 36 39 44 47 54 61 62 63 70 71 74 75 76 80
10 13 15 20 23 27 29 32 34 51 67 79
1 2 3 5 6 7 8 9 11 16 18 21 26 28 30 31 33 34 35 40 45 46 54 62 66 67 69 70 73 77 79
4 8 9 15 19 20 22 26 27 30 32 36 37 40 48 49 56 58 69 70 72 76 79
6 19 21 24 25 28 29 31 32 37 44 47 51 54 63 64 65 66 68 70 71 77 80
1 2 3 8 9 12 20 21 29 32 38 41 42 44 45 53 59 62 72 73 80
3 6 8 10 12 13 19 20 21 26 27 30 33 40 43 47 50 51 53 55 56 57 61 66 67 68 73 77
3 6 7 8 10 15 18 22 27 33 34 38 43 45 46 47 49 50 54 58 63 64 71 72 74 77 79
1 12 13 16 17 21 24 35 37 44 51 52 54 59 60 61 66 70 78 80
2 4 6 8 9 12 14 15 16 19 27 30 44 45 46 47 50 54 56 61 71 74 75 78 79
3 4 6 11 16 17 19 21 26 27 32 33 36 42 46 54 59 62 63 66 68 71 79
1 6 11 17 21 22 25 26 35 49 51 53 57 58 61 63 65 75 77
1 5 7 12 17 21 25 27 35 40 44 47 48 51 53 54 57 61 63 73 74 78
8 10 14 17 20 21 26 36 37 48 49 51 53 56 59 65 66 71 74 76 79 80
3 5 6 9 11 14 17 18 22 23 25 30 34 35 38 39 42 46 47 53 55 57 62 67 73 75 76 77 80
3 4 5 6 10 11 14 15 17 28 32 35 37 39 47 49 56 58 59 60 63 64 66 70 71 72 77 78
1 11 12 17 19 23 24 27 29 32 37 39 40 44 47 48 49 52 58 65 66 74 77 78 79
1 9 13 15 16 18 21 23 24 25 27 30 34 36 37 39 42 44 45 46 51 53 61 67 69 72 73
4 6 7 11 14 15 19 24 25 27 29 33 42 43 46 50 51 56 57 63 70 78
1 2 8 9 17 22 23 27 33 37 41 43 45 46 51 54 58 60 62 65 68 72 79
3 6 10 12 18 23 24 25 27 28 29 36 37 39 48 53 54 56 57 58 68 69 71 76 78 80
6 7 10 11 12 16 23 24 27 31 34 36 38 41 42 43 47 48 49 57 62 68 69 76 79 80
2 4 7 8 23 25 28 38 46 56 63 65 68 71 73
1 3 9 11 12 15 16 21 22 29 35 36 41 42 43 44 47 50 61 62 63 64 65 68 74 75
1 3 7 8 9 15 22 28 29 30 32 34 37 38 39 40 42 49 50 56 66 67 68 69 70 73 78
10 15 16 23 24 28 29 36 44 62 64 65 68 70 72 73 75 80
11 16 19 20 21 24 33 36 39 43 45 48 50 52 54 57 58 62 63 64 71 77 79
2 3 5 11 13 19 22 23 24 26 29 36 41 42 44 48 50 51 56 69 76 78
3 5 10 11 12 13 17 18 26 28 33 37 41 45 46 49 50 56 61 64 67 71 73 77
9 20 35 38 40 43 45 60 61 63 65 67 68 69 71 76
1 2 3 12 17 21 22 38 45 49 59 61 65 67 68 69 72 79
2 3 5 6 10 12 20 21 23 24 25 29 30 36 38 39 41 42 47 53 58 59 60 66 71 72 73 75 78
1 3 14 18 22 23 25 27 28 30 32 35 40 44 49 51 53 55 56 64 66 70 72 74 75 78 79 80
4 6 7 10 11 12 13 14 15 21 24 25 28 30 34 37 40 41 42 45 48 52 53 56 59 66 68 71 78
5 8 9 11 19 28 34 37 45 53 55 56 58 62 66 73 75 77 79 80
7 12 17 19 20 22 23 27 34 41 43 46 49 52 53 55 59 60 67 69 75 76 77 78
2 6 8 10 11 14 19 22 27 29 32 34 36 38 40 43 45 46 54 61 62 63 64 68 70 74 75 76 77 80
2 5 10 11 12 15 18 20 21 22 23 26 29 31 32 36 44 47 54 58 59 60 65 73
4 5 7 20 22 23 34 36 40 49 50 51 52 53 54 55 59 60 63 66 74 76 78
4 9 16 19 20 28 29 32 33 47 50 51 54 57 59 60 65 76 80
2 7 9 19 21 23 25 26 27 30 32 33 34 38 45 48 54 55 62 66 77 79
4 7 21 27 30 34 37 39 40 43 45 50 52 56 58 59 61 63 74 80
3 4 5 8 11 12 15 22 23 33 35 37 45 47 49 55 60 61 62 79 80
11 13 14 17 18 21 26 28 32 35 36 42 44 47 52 54 55 58 61 64 67 77
2 4 7 10 21 22 24 27 29 30 37 39 42 43 46 53 62 66 68 71 76 77 79
7 10 12 14 17 19 21 22 24 25 27 30 39 41 44 53 55 61 62 64 65 66 76
5 8 21 24 26 28 30 33 43 44 50 51 57 59 65 66 68 69 74 75 80
3 11 15 32 34 36 37 41 44 45 46 56 58 64 65 66 70 73 74
1 6 7 8 11 12 15 17 18 26 38 39 42 45 46 48 50 54 57 61 62 63 65 68
2 13 15 16 27 31 32 33 37 39 40 43 46 49 51 56 60 62 64 70 72 74
3 6 15 18 21 22 24 28 30 34 35 38 43 44 50 51 55 62 64 66 69 71 72 76
83 84 88 92 101 102 104 105 110 111 117 118 121 124 126 129 130 134 136 137 139 144 153 155 159 172
86 87 92 94 95 101 103 106 108 109 113 118 119 122 123 125 127 130 135 139 140 141 142 143 144 145 149 160 184
81 85 86 87 89 90 91 94 100 101 103 104 107 112 114 115 116 117 119 121 128 133 139 140 141 145 147 148 153 156 158 159
81 88 103 105 107 108 111 112 115 121 126 129 130 135 136 139 141 142 143 149 150 151 153
83 87 91 97 98 101 107 108 110 116 117 118 130 132 133 140 141 143 144 145 146 147 151 154 155 156 159
82 83 93 96 97 98 99 100 102 105 110 112 115 116 119 121 123 127 128 131 138 139 141 143 147 149 150 151 153
82 83 85 97 98 101 105 115 123 126 129 135 141 160
81 84 91 93 94 97 102 106 116 120 121 123 126 127 128 130 133 140 142 144 146 148 157 160
83 93 99 105 106 107 109 110 120 127 131 135 139 143 144 146 151 156 160
83 96 103 107 108 113 118 119 125 126 131 134 138 140 141 148 149 151 155 159
83 85 88 93 94 100 109 111 113 114 116 117 120 121 122 125 127 128 136 139 140 141 144 146 149 154 157 158
81 82 95 108 113 115 116 117 123 125 126 133 136 139 145 148 150 151 156 157 158
86 88 89 91 94 103 105 110 112 114 115 116 124 127 129 134 136 143 146 149 153 157 159 160
82 83 88 91 93 105 108 109 116 117 122 123 126 130 133 140 141 142 145 147 148 149 152 155
82 92 98 105 112 115 117 120 121 127 134 135 140 144 146 147 155 157 159
86 90 97 100 101 105 107 112 118 119 120 122 123 128 132 134 136 145 148 150 151 156 157 158
85 86 87 88 96 99 109 111 112 115 120 121 123 130 132 133 135 139 145 153 155 156 157 159
85 86 87 95 100 110 111 113 116 119 133 134 135 142 143 148 150 151 155 159
86 89 97 100 101 109 115 117 122 130 132 133 134 135 136 138 142 145 147 149
83 86 91 96 98 99 103 109 110 113 115 118 122 126 128 129 130 131 135 139 140 141 144 145 146 148 149 156 157 158
81 82 83 85 87 96 99 106 107 109 111 118 119 121 123 127 130 133 143 144 150 153 155 156 157
81 86 88 103 104 117 122 130 131 133 139 141 151 152 153 155 157 160
82 83 84 90 93 100 102 105 106 110 112 117 118 120 123 127 129 130 131 136 137 140 141 142 143 144 145 148 150 152 160
81 83 102 109 111 112 113 114 117 119 121 122 123 126 127 133 134 138 146 152 156 160
81 84 86 87 89 93 94 95 96 103 108 110 113 114 116 117 122 125 131 132 133 137 142 148 151 157
82 88 89 101 103 107 108 114 115 116 117 121 128 131 135 137 138 140 146 148 149 152 153 158
83 84 85 89 90 96 101 106 110 119 121 122 127 129 130 131 134 135 141 143 144 148 155 156 160
82 84 85 90 92 94 105 106 111 113 116 120 126 127 132 135 136 142 144 145 152 155 156 157
82 89 91 94 97 99 100 101 104 112 119 121 122 129 135 137 138 139 148 151 153 158
81 85 86 89 93 98 100 103 105 107 115 116 120 122 123 125 132 150 157 160
81 84 91 97 98 101 104 108 117 118 119 123 130 131 132 137 138 139 143 147 152 157 160
83 84 86 93 95 96 97 103 104 109 115 116 117 122 127 128 131 135 136 138 141 144 147 150 151 154 157 158
82 90 91 92 98 100 104 105 108 115 118 121 126 127 131 133 135 138 139 140 143 147 148 154 155 160
83 91 93 104 105 106 116 118 121 125 126 130 141 150 151 152 160
83 84 86 87 92 93 95 97 99 100 106 110 112 113 118 120 126 128 134 135 137 138 139 140 145 146 147 148 150 151 153 154 155
83 85 86 88 91 92 93 94 98 105 106 108 110 112 114 122 127 128 129 132 133 134 137 139 142 145 147 149 151 159
81 83 85 91 92 94 95 99 102 103 104 105 106 111 112 119 127 128 137 141 152 156 159
81 82 85 90 96 100 101 103 111 113 114 115 126 128 134 136 142 144 146 147 148 151 155 160
82 83 86 90 96 98 101 104 107 109 111 117 137 140 141 142 144 148 149 151 153
88 89 91 95 96 97 103 108 110 115 121 124 128 133 137 139 142 144 145 146 155 160
81 83 84 86 88 91 95 97 101 104 106 107 109 113 114 120 122 130 133 136 138 139 145 146 154
82 91 94 96 99 100 102 104 105 107 109 110 112 116 121 126 129 132 137 145 150 153 154 155 159 160
82 86 87 88 92 94 96 97 101 103 104 110 111 128 130 146 153 158 159
81 93 120 127 128 129 130 131 135 137 140 143 149 151 152 154 160
82 90 91 92 105 110 114 127 134 135 136 139 140 143 149 153 158 159 160
81 84 87 88 90 92 94 100 104 108 113 114 115 118 122 131 132 133 141 154 155 159 160
82 86 88 89 91 93 95 101 103 104 107 108 112 113 116 117 124 125 129 131 132 140 148 149 150 152 154 155
83 86 88 91 96 100 106 112 115 116 117 118 120 123 124 131 135 137 139 141 145 148 150 152 158 159 160
81 84 87 93 100 103 107 109 116 122 124 127 131 136 137 147 149 150 151 155 158
81 82 84 85 88 94 97 99 100 101 102 103 107 111 114 121 123 124 132 137 141 142 144 145 147 148 153 154 155 157
86 89 90 100 102 103 105 106 107 111 112 113 124 126 127 128 129 136 137 138 139 145 151 160
85 96 97 99 105 108 110 111 116 122 126 127 130 134 135 140 141 144 149 150 151 155
83 85 88 92 94 97 98 99 101 102 104 105 113 116 120 121 126 135 141 145 146 149 150 157 158 159
81 90 93 95 96 98 99 104 107 115 116 118 125 132 135 145 148 153 157
82 84 87 89 95 97 98 99 100 106 107 108 109 112 113 115 124 125 128 132 133 134 142 148 150 151 156
81 84 91 92 93 96 99 103 108 112 118 121 125 129 131 142 143 145 148 152 153 155 159
81 103 105 106 109 111 115 116 117 119 120 122 124 128 129 130 131 138 141 144 145 148 149 150 152 153 154 155 156 157
86 90 99 104 106 109 111 112 113 115 121 131 137 140 145 147 148 151
81 82 83 84 86 89 91 92 97 100 102 109 111 113 115 116 120 121 125 128 131 149 153 154
82 83 85 88 90 91 94 95 100 103 106 113 115 119 124 125 127 132 138 141 142 148 149
82 83 84 85 86 87 90 91 94 100 102 103 107 112 114 117 119 126 128 130 132 133 137 140 143 145 152 154
82 84 88 94 98 99 103 105 108 116 118 119 120 130 135 136 140 144 146 148 153 155 156
82 84 85 86 89 93 98 101 103 107 111 113 124 125 136 141 154 158 159
81 82 85 88 89 91 95 100 101 103 107 108 112 118 119 120 130 132 137 142 148 150 152 156 157
82 83 85 92 94 96 97 99 100 103 108 115 116 120 121 122 128 130 131 133 134 136 137 138 141 146 149 152 153 154 156 158
85 88 89 91 93 95 100 104 106 115 118 120 121 123 133 142 145 147 150
83 85 86 94 95 99 111 112 113 115 116 118 129 130 138 146 154 156 160
83 88 90 92 94 96 98 100 103 105 106 107 109 113 115 118 119 127 128 130 134 135 136 137 138 140 142 144 150 151 154 156 159 160
82 84 86 90 91 93 94 99 100 106 116 119 124 125 127 129 132 133 137 139 140 145 155 157 158
84 86 92 96 98 101 103 110 112 114 115 122 127 128 129 132 133 135 137 144 146 148 151 152 153 157 159
84 85 86 89 90 92 96 98 102 105 109 112 114 115 116 118 119 124 129 131 132 135 138 148 150 156
94 102 103 104 106 108 111 114 117 124 127 128 136 137 141 144 145 150 153 159
81 83 84 86 93 97 101 102 106 109 115 119 122 123 125 130 134 136 137 139 142 145 150 152 155 160
85 91 112 113 115 121 122 124 126 127 130 137 139 141 143 145 147 148 155 160
81 85 90 94 95 97 98 101 102 107 108 113 115 118 120 122 126 127 129 130 132 136 137 142 149 153 154 159
83 85 89 92 96 97 100 101 104 107 108 117 135 137 142 144 145 147 148 151 157
88 91 92 93 95 96 97 100 101 102 105 108 110 111 112 130 133 134 137 144 149 150 156 158 159
83 91 92 96 100 106 109 112 123 125 128 129 133 143 145 149 157
81 83 85 90 93 95 97 98 116 117 122 123 125 126 128 133 136 143 148 150 152 155 157
82 87 88 89 93 102 103 104 107 110 111 113 114 118 120 122 124 125 126 128 131 147 148 153 154
1 162
161 163
162 164
163 165
164 166
165 167
166 168
167 169
168 170
169 171
170 172
81 171
2 174
173 175
174 176
175 177
176 178
177 179
178 180
179 181
180 182
181 183
182 184
82 183
