184 1949
2 3 10 11 21 22 24 29 36 37 40 42 45 47 50 54 55 58 59 62 63 66 68 69 73 74 78 161
1 3 7 10 17 19 20 21 22 24 25 30 31 36 38 39 42 43 47 53 55 57 63 65 77 78 79 80 173
1 2 6 9 11 19 20 21 24 28 33 34 35 36 38 40 44 54 57 61 62 69 75
9 13 18 22 24 25 27 28 41 42 46 58 59 69 70 74 75 79 80
8 9 10 11 13 14 17 20 30 33 36 37 42 44 47 50 53 73 74 77 78 79 80
3 7 8 10 15 16 17 21 22 25 26 29 31 32 34 35 39 40 41 45 53 54 55 56 58 59 60 61 62 63 69 77 79
2 6 8 9 10 11 16 19 27 28 30 33 39 44 47 48 50 51 52 60 62 65 66 67 68 69 70 75 78 79 80
5 6 7 12 16 18 21 23 32 38 39 48 49 50 53 58 59 61 63 64 65 66 67 68 74 77 78
3 4 5 7 12 23 24 38 39 45 46 48 50 52 53 56 57 58 61 62 65 72 73
1 2 5 6 7 11 14 15 19 20 25 27 28 30 31 39 43 44 47 48 52 53 62 64 67 68 71 74 77 78 80
1 3 5 7 10 13 16 17 18 21 26 38 39 45 46 47 48 54 56 63 71 72 73 74 75 76 79
8 9 13 14 17 23 24 28 29 32 33 35 39 41 42 43 46 51 53 58 59 60 61 63 69 70 71 76
4 5 11 12 17 21 25 28 32 33 44 45 55 58 59 60 62 63 64 74 76 77
5 10 12 15 22 24 27 31 32 33 39 41 43 46 47 48 49 51 52 55 58 63 65 70 75 80
6 10 14 19 23 36 37 39 43 45 47 48 51 59 60 61 62 64 66 67 72 77
6 7 8 11 28 29 30 44 45 48 53 59 65 70 72 73 80
2 5 6 11 12 13 18 19 22 30 39 41 48 49 55 59 60 65 66 70 73 75 80
4 8 11 17 19 22 23 25 27 29 31 35 36 47 50 56 61 63 66 67 70 72 73 74 76 78 79
2 3 7 10 15 17 18 26 35 40 43 44 46 50 68 74 77 78 79
2 3 5 10 24 33 34 35 38 42 45 47 48 49 57 61 68 69 72 73 77 79
1 2 3 6 8 11 13 27 30 33 37 39 43 44 46 56 58 60 62 64 76 78 79
1 2 4 6 14 17 18 24 29 36 37 39 40 44 50 51 53 62 66 70 75 76
8 9 12 15 18 28 32 35 36 50 51 60 62 63 65 67 69 72 75 76 78
1 2 3 4 9 12 14 20 22 26 29 30 31 36 41 43 47 50 52 56 58 59 63 66 73 76 78
2 4 6 10 13 18 33 34 35 36 37 38 41 46 47 49 50 52 54 59 60 62 65 67 68 69 73 78
6 11 19 24 32 36 38 49 51 63 66 71 72 73 75 77 78 79
4 7 10 14 18 21 28 41 49 51 52 53 54 56 57 58 60 61 67 68 69 74 76
3 4 7 10 12 13 16 23 27 31 34 39 45 47 49 50 51 55 65 70 73 74 75 79 80
1 6 12 16 18 22 24 32 34 35 37 43 52 53 59 60 65 72 73 76 80
2 5 7 10 16 17 21 24 31 38 45 46 47 62 67 69 74
2 6 10 14 18 24 28 30 33 34 35 37 39 41 54 57 63 65 66 71 73
6 8 12 13 14 23 26 29 33 35 38 42 46 47 49 57 61 62 63 67 73 74 77 78 79
3 5 7 12 13 14 20 21 25 31 32 40 42 46 50 51 55 59 60 61 62 64 65 70 76 79
3 6 20 25 28 29 31 35 36 39 43 45 50 51 58 63 64 66 67 73
3 6 12 18 19 20 23 25 29 31 32 34 36 37 40 41 42 44 48 57 66 68 69 70 74 76 77
1 2 3 5 15 18 22 23 24 25 26 34 35 38 42 43 51 58 60 61 63 64 67 69 70
1 5 15 21 22 25 29 31 35 38 39 43 45 47 51 52 54 62 64 70 75
2 3 8 9 11 20 25 26 30 32 36 37 41 42 43 45 46 48 49 55 58 59 60 61 62 68 69 72 76 78 79 80
2 6 7 8 9 10 11 12 14 15 17 21 22 28 31 34 37 41 42 45 50 51 52 61 67 71 73 76 77
1 3 6 19 22 33 35 43 47 62 63 66 67 69 70 71 72 74 75 76 77
4 6 12 14 17 24 25 27 31 35 38 39 46 49 51 55 59 60 68 73 74 76 78 79
1 2 4 5 12 20 32 33 35 36 38 39 44 49 50 51 52 54 56 57 61 66 73 74 76 78
2 10 12 14 15 19 21 24 29 34 36 37 38 40 49 55 65 66 69 70 73 75 79 80
3 5 7 10 13 16 19 21 22 35 42 46 49 52 66 67 68 70 76 77
1 6 9 11 13 15 16 20 28 30 34 37 38 39 47 48 50 53 61 62 63 65 68 69 77
4 9 11 12 14 19 21 25 30 32 33 38 41 44 50 51 53 60 61 62 68 70 71 73
1 2 5 7 10 11 14 15 18 20 24 25 28 30 32 37 40 45 49 57 65 66 69 73 74 76
7 8 9 10 11 14 15 16 17 20 35 38 45 49 55 56 59 61 66 70 72 75
8 14 17 20 25 26 27 28 32 38 41 42 43 44 47 48 50 56 57 58 60 61 70 74 76
1 5 7 8 9 18 19 22 23 24 25 28 33 34 39 42 45 46 49 51 64 66 68 71 72 80
7 12 14 15 22 23 26 27 28 33 34 36 37 39 41 42 46 50 53 54 57 58 59 65 69 70 77 78 80
7 9 10 14 24 25 27 29 37 39 42 44 60 68 70 73
2 5 6 8 9 10 12 16 22 27 29 45 46 51 54 60 62 63 71 72 73 74 75
1 3 6 11 25 27 31 37 42 51 53 55 56 62 65 74 76 77
1 2 6 13 14 17 28 33 38 41 43 48 54 57 64 69 70 75 78
6 9 11 18 21 24 27 42 48 49 54 57 59 60 68 74 77 78 79 80
2 3 9 20 27 31 32 35 42 47 49 51 55 56 59 62 63 64 74 76 79
1 4 6 8 9 12 13 14 21 24 27 34 36 38 49 51 60 64 65 66 67 68 71 72 74 75 76
1 4 6 8 12 13 15 16 17 24 25 29 33 38 41 48 51 56 57 61 62 64 70 79
6 7 12 13 15 17 21 23 25 27 29 33 36 38 41 46 49 52 53 56 58 63 64 67 70 76 77
3 6 8 9 12 15 18 20 27 32 33 36 38 39 42 45 46 48 49 59 62 68 78
1 3 6 7 9 10 13 15 21 22 23 25 30 32 33 37 38 40 45 46 53 54 57 59 61 63 65 69 75 76 80
1 2 6 8 11 12 13 14 18 23 24 26 31 32 34 36 40 45 53 57 60 62 65 67 68 69 70 74 75 80
8 10 13 15 21 33 34 36 37 50 55 57 58 59 60 65 72 78 79
2 7 8 9 14 16 17 23 25 28 29 31 33 43 45 47 51 54 58 62 63 64 67 74 76
1 7 8 15 17 18 22 24 26 31 34 35 40 42 43 44 47 48 50 58 67 73
7 8 10 15 18 23 25 27 30 32 34 36 39 40 44 58 60 63 65 66 76 78
1 7 8 10 19 20 25 27 35 38 41 44 45 46 50 52 56 58 61 63 70 71 77 80
1 3 4 6 7 12 20 23 25 27 30 35 36 38 40 43 45 47 51 55 62 63 78
4 7 12 14 16 17 18 22 28 33 35 36 37 40 43 44 46 48 49 51 52 55 59 60 63 68 76 79
10 11 12 26 31 39 40 46 50 53 58 68 72 73 77 79
9 11 15 16 18 20 23 26 29 38 40 48 50 53 58 64 71 73 74
1 5 9 11 16 17 18 20 24 25 26 28 29 31 32 34 39 41 42 43 46 47 52 53 66 71 72 74 77 79
1 4 5 8 10 11 13 18 19 27 28 30 32 35 40 41 42 47 49 53 54 56 57 58 63 65 72 73 77 79
3 4 7 11 14 17 22 23 26 28 37 40 43 48 53 55 58 62 63 77
11 12 13 18 21 22 23 24 27 29 33 35 38 39 40 41 42 44 47 49 54 57 58 60 62 65 67 70
2 5 6 8 10 13 15 19 20 26 32 35 39 40 44 45 51 54 56 60 68 71 73 74 75
1 2 5 7 8 10 18 19 21 23 24 25 26 32 38 41 42 51 55 56 61 64 67 69 79 80
2 4 5 6 7 11 18 19 20 21 26 28 32 33 38 41 43 56 57 59 64 70 71 73 74 78
2 4 5 7 10 14 16 17 28 29 38 43 50 51 56 62 63 68 78
82 83 87 90 92 102 107 109 121 124 126 128 131 137 142 153 156 172
81 84 93 94 100 105 107 112 114 116 117 120 128 129 132 136 138 139 142 143 144 153 155 184
81 86 87 89 90 91 92 95 101 109 113 118 126 127 128 130 131 132 135 136 140 150 152 158
82 93 97 98 99 106 116 120 125 128 129 130 131 133 134 135 136 138 139 140 145 146 147 149 151 152 153 154 155 156 157 159
86 87 90 95 100 101 104 105 107 109 110 115 117 119 122 126 128 134 135 139 141 142 143 144 153 154 155 157
83 85 88 96 101 103 106 109 112 113 115 116 117 118 119 120 121 129 131 132 137 138 139 142 143 144 146 151 153 155 157
81 83 85 94 100 102 104 108 112 113 120 122 123 125 133 135 141 143 150 153 160
86 89 93 96 99 100 111 114 117 119 120 121 135 141 143 144 145 160
83 88 95 105 108 113 117 118 123 124 127 129 130 131 134 135 141 145 158 159
81 83 85 93 99 100 101 103 104 105 113 116 118 120 122 124 125 128 131 133 138 139 140 143 146 154 156
83 94 96 98 105 110 113 115 117 120 121 122 125 127 128 131 137 140 141 142 149 150 154
81 83 99 102 103 104 106 107 108 109 116 118 121 124 129 130 131 132 134 137 139 142 143 146 147 148 149 150 153 154 157
82 84 88 90 96 97 99 104 108 116 125 126 127 131 132 133 135 138 143 147 150 152 155
82 87 91 104 106 107 109 110 118 120 121 122 124 128 130 132 143 144 145 147 157 158
83 85 89 97 99 102 103 104 108 112 113 120 123 124 129 130 131 138 141 143 144 151 152 157 160
86 88 91 93 97 100 103 106 107 116 118 119 120 128 131 136 141 151 155 156 159
84 93 95 96 98 99 101 102 103 113 119 120 127 132 136 137 139 142 146 149 151 155
84 91 97 99 100 103 104 108 113 115 116 117 121 126 130 133 141 142 146 154 155 159
84 88 90 92 93 95 97 98 102 103 115 117 118 122 126 129 135 137 148 154 155 160
82 85 87 88 90 96 98 103 104 107 108 113 118 124 125 130 132 136 139 140 141 145 146 153 154
83 85 86 90 97 104 106 108 110 111 112 113 115 116 120 122 139 143 145 149 159
81 87 92 95 97 99 108 109 114 115 116 117 119 122 124 131 134 135 143 145 147 148 150 152 158 159
86 90 92 95 96 97 98 99 100 104 107 112 121 123 125 139 140 144 152 153 155
85 87 90 92 93 94 95 98 100 101 103 105 106 107 109 110 112 117 121 125 130 134 146 150 154
82 85 89 90 91 104 106 113 120 121 122 125 128 129 132 137 139 145 147 148 151 153
84 86 92 94 96 101 104 105 109 112 113 114 115 119 120 123 126 128 129 130 135 142 144 145 149 154 155
81 82 85 92 94 96 100 103 104 108 116 118 119 125 128 133 142 144 147 148 152 154 155
87 89 92 93 95 98 100 101 102 107 109 116 118 121 122 126 133 136 140 146 151 154 157 160
81 83 85 86 92 94 102 104 106 108 115 117 120 122 131 140 141 142 144 147 150 151
85 91 94 101 104 112 113 114 122 126 127 132 138 140 141 144 145 148 150 154 156
88 101 112 125 126 128 130 131 133 135 141 147 153
82 86 87 95 101 103 104 106 110 111 113 116 119 124 125 126 129 130 131 133 136 140 148 153 156 158
83 86 87 89 90 91 95 97 98 100 101 105 106 110 112 116 120 125 126 127 128 129 132 133 135 137 139 146 147 148 155
82 88 102 106 110 116 125 129 130 131 133 135 137 141 147 156 158 160
85 86 91 98 99 101 102 106 109 118 121 122 126 137 140 147 153 154 157
82 84 86 90 92 93 96 98 101 102 107 108 112 113 114 121 123 124 129 139 144 146 147 148 149 151 157
82 85 86 88 89 91 98 99 102 104 109 118 119 128 130 131 133 137 141 142 143 146 152 153 154 156 158 160
83 86 89 90 92 94 96 99 100 107 108 115 117 123 124 125 126 127 130 133 134 144 145 146 148 150 153 156 158 159
85 86 88 96 97 102 106 107 112 117 120 122 123 127 129 134 135 136 139 144 145 147 148 152 157 158 159
82 84 86 87 88 90 91 94 95 96 97 101 105 106 109 113 119 121 123 129 135 141 151 157
81 86 88 91 92 94 98 103 104 105 108 115 116 120 122 129 132 139 140 143 145 146
85 87 90 91 94 99 101 102 105 108 109 110 115 119 121 125 131 132 137 139 142 150 151 152 156 159
87 89 95 103 106 116 118 119 120 124 131 132 134 136 139 140 141 142 150 153
81 89 90 92 94 95 100 102 112 116 118 123 126 127 132 133 134 137 140 142 149 150 152 153 157
84 87 90 91 93 100 103 104 105 107 111 112 113 114 118 122 126 131 134 137 139 140 145 147 148 150 153 157
81 83 85 93 98 99 106 108 110 111 112 113 115 118 124 125 131 134 143 145 157 160
83 89 91 93 97 110 113 118 119 124 129 133 138 140 141 143 144 149 150 153 156 157 159
81 82 83 84 85 90 91 94 96 105 106 107 111 113 117 129 130 138 139 142 144 147 149 150 152 160
82 84 86 89 92 95 99 105 106 112 113 114 116 119 120 121 127 128 132 135 137 138 139 145 147 149 157 158 159
83 84 89 92 94 95 98 100 104 106 111 112 114 117 118 128 133 136 137 138 141 148 152 157 159
81 83 84 86 89 90 91 92 93 95 96 102 109 111 112 114 117 122 123 125 126 134 137 149 151 160
82 83 86 92 93 94 97 100 105 110 113 121 122 123 124 129 133 134 136 137 138 139 142 143 147 151 152 153 156 159
84 87 90 93 98 107 108 111 112 113 114 117 118 124 127 130 132 134 136 137 142 147 151 157 158 160
84 85 89 92 102 104 118 119 123 124 125 126 131 132 133 142 149 151 154 155 156 157 160
83 84 85 87 88 89 93 99 102 106 111 113 114 119 120 129 142 148 151 155
82 83 84 96 97 100 108 112 119 123 130 132 133 139 141 142 144 148 153 157 159
81 86 91 92 97 99 105 113 114 115 117 122 124 125 129 130 131 132 133 144 145 149 153 158 159 160
82 84 86 90 93 95 110 127 128 129 130 132 140 155 159 160
82 84 85 86 90 92 97 100 101 103 105 113 116 119 121 122 123 125 128 129 132 136 140 142 144 146 147 156 157 160
83 84 90 91 100 103 108 109 110 112 115 121 123 124 125 127 138 139 141 142 144 146 150 152 154 156 157 159 160
85 87 88 89 91 95 96 98 100 109 110 111 114 117 120 123 127 130 136 140 142 145 146 150 152 154 156 158
81 82 85 86 91 92 97 98 106 107 109 117 122 123 124 128 132 133 134 135 136 139 140 141 143 144 146 147 149 151 152 156 158 159
82 85 86 87 88 90 92 93 94 95 101 102 117 121 126 127 132 142 151 153 157 160
82 85 86 88 94 95 103 106 107 109 110 116 118 119 127 128 136 137 139 140 142 149 151 153 155 157 159 160
84 88 89 94 100 101 102 105 106 110 118 119 121 125 126 129 137 141 150 153
84 86 90 92 97 98 100 104 108 113 116 117 118 121 139 140 141 142 148 149 153 154 155 158 159
84 92 93 94 102 105 107 109 111 113 114 115 116 119 125 128 129 132 133 139 142 149 150
92 99 102 105 107 110 112 113 116 118 119 125 130 135 136 146 151 153 156 157 158
84 91 92 97 101 106 116 124 127 128 129 131 134 137 142 144 146 147 151 152 153 156 160
83 87 91 92 93 102 104 109 110 118 122 123 124 125 127 128 140 141 145 147 155 159
84 86 95 96 97 105 108 109 116 120 122 131 132 133 134 135 142 143 144 148 149 153 155
83 84 93 95 102 103 107 117 119 122 124 128 130 132 140 141 142 149 154 156
81 82 84 85 86 87 92 100 103 105 111 112 115 117 118 123 124 125 127 132 136 137 143 144 145 146 148 149 151 160
84 85 90 91 92 98 99 100 104 106 107 108 110 115 117 134 140 141 146 152 155 156 158
82 84 85 86 93 96 97 98 99 103 106 107 113 134 135 138 144 146 150 151 154 157 159
81 84 90 96 110 112 114 117 118 122 127 132 134 139 140 141 142 148 149 152 154 157 159
84 85 86 92 94 95 108 115 116 119 120 124 125 126 127 129 130 133 134 136 139 140 143 144 148 155 156 160
83 89 94 102 112 114 117 118 119 129 133 137 141 142 146 148 154 159
84 89 96 98 101 102 118 119 122 127 129 130 132 136 137 138 140 142 144 146 150 155 156 158
87 88 95 99 108 114 117 126 128 131 133 134 137 138 139 140 143 144 149 153 157
1 162
161 163
162 164
163 165
164 166
165 167
166 168
167 169
168 170
169 171
170 172
81 171
2 174
173 175
174 176
175 177
176 178
177 179
178 180
179 181
180 182
181 183
182 184
82 183
