0 1
0 2
0 9
0 10
0 20
0 21
0 23
0 28
0 35
0 36
0 39
0 41
0 44
0 46
0 49
0 53
0 54
0 57
0 58
0 61
0 62
0 65
0 67
0 68
0 72
0 73
0 77
0 160
1 2
1 6
1 9
1 16
1 18
1 19
1 20
1 21
1 23
1 24
1 29
1 30
1 35
1 37
1 38
1 41
1 42
1 46
1 52
1 54
1 56
1 62
1 64
1 76
1 77
1 78
1 79
1 172
2 5
2 8
2 10
2 18
2 19
2 20
2 23
2 27
2 32
2 33
2 34
2 35
2 37
2 39
2 43
2 53
2 56
2 60
2 61
2 68
2 74
3 8
3 12
3 17
3 21
3 23
3 24
3 26
3 27
3 40
3 41
3 45
3 57
3 58
3 68
3 69
3 73
3 74
3 78
3 79
4 7
4 8
4 9
4 10
4 12
4 13
4 16
4 19
4 29
4 32
4 35
4 36
4 41
4 43
4 46
4 49
4 52
4 72
4 73
4 76
4 77
4 78
4 79
5 6
5 7
5 9
5 14
5 15
5 16
5 20
5 21
5 24
5 25
5 28
5 30
5 31
5 33
5 34
5 38
5 39
5 40
5 44
5 52
5 53
5 54
5 55
5 57
5 58
5 59
5 60
5 61
5 62
5 68
5 76
5 78
6 7
6 8
6 9
6 10
6 15
6 18
6 26
6 27
6 29
6 32
6 38
6 43
6 46
6 47
6 49
6 50
6 51
6 59
6 61
6 64
6 65
6 66
6 67
6 68
6 69
6 74
6 77
6 78
6 79
7 11
7 15
7 17
7 20
7 22
7 31
7 37
7 38
7 47
7 48
7 49
7 52
7 57
7 58
7 60
7 62
7 63
7 64
7 65
7 66
7 67
7 73
7 76
7 77
8 11
8 22
8 23
8 37
8 38
8 44
8 45
8 47
8 49
8 51
8 52
8 55
8 56
8 57
8 60
8 61
8 64
8 71
8 72
9 10
9 13
9 14
9 18
9 19
9 24
9 26
9 27
9 29
9 30
9 38
9 42
9 43
9 46
9 47
9 51
9 52
9 61
9 63
9 66
9 67
9 70
9 73
9 76
9 77
9 79
10 12
10 15
10 16
10 17
10 20
10 25
10 37
10 38
10 44
10 45
10 46
10 47
10 53
10 55
10 62
10 70
10 71
10 72
10 73
10 74
10 75
10 78
11 12
11 13
11 16
11 22
11 23
11 27
11 28
11 31
11 32
11 34
11 38
11 40
11 41
11 42
11 45
11 50
11 52
11 57
11 58
11 59
11 60
11 62
11 68
11 69
11 70
11 75
12 16
12 20
12 24
12 27
12 31
12 32
12 43
12 44
12 54
12 57
12 58
12 59
12 61
12 62
12 63
12 73
12 75
12 76
13 14
13 21
13 23
13 26
13 30
13 31
13 32
13 38
13 40
13 42
13 45
13 46
13 47
13 48
13 50
13 51
13 54
13 57
13 62
13 64
13 69
13 74
13 79
14 18
14 22
14 35
14 36
14 38
14 42
14 44
14 46
14 47
14 50
14 58
14 59
14 60
14 61
14 63
14 65
14 66
14 71
14 76
15 27
15 28
15 29
15 43
15 44
15 47
15 52
15 58
15 64
15 69
15 71
15 72
15 79
16 17
16 18
16 21
16 29
16 38
16 40
16 47
16 48
16 54
16 58
16 59
16 64
16 65
16 69
16 72
16 74
16 79
17 18
17 21
17 22
17 24
17 26
17 28
17 30
17 34
17 35
17 46
17 49
17 55
17 60
17 62
17 65
17 66
17 69
17 71
17 72
17 73
17 75
17 77
17 78
18 25
18 34
18 39
18 42
18 43
18 45
18 49
18 67
18 73
18 76
18 77
18 78
19 23
19 32
19 33
19 34
19 37
19 41
19 44
19 46
19 47
19 48
19 56
19 60
19 67
19 68
19 71
19 72
19 76
19 78
20 26
20 29
20 32
20 36
20 38
20 42
20 43
20 45
20 55
20 57
20 59
20 61
20 63
20 75
20 77
20 78
21 23
21 28
21 35
21 36
21 38
21 39
21 43
21 49
21 50
21 52
21 61
21 65
21 69
21 74
21 75
22 27
22 31
22 34
22 35
22 49
22 50
22 59
22 61
22 62
22 64
22 66
22 68
22 71
22 74
22 75
22 77
23 25
23 28
23 29
23 30
23 35
23 40
23 42
23 46
23 49
23 51
23 55
23 57
23 58
23 62
23 65
23 72
23 75
23 77
24 32
24 33
24 34
24 35
24 36
24 37
24 40
24 45
24 46
24 48
24 49
24 51
24 53
24 58
24 59
24 61
24 64
24 66
24 67
24 68
24 72
24 77
25 31
25 35
25 37
25 48
25 50
25 62
25 65
25 70
25 71
25 72
25 74
25 76
25 77
25 78
26 27
26 40
26 48
26 50
26 51
26 52
26 53
26 55
26 56
26 57
26 59
26 60
26 66
26 67
26 68
26 73
26 75
27 30
27 33
27 38
27 44
27 46
27 48
27 49
27 50
27 54
27 64
27 69
27 72
27 73
27 74
27 78
27 79
28 31
28 33
28 34
28 36
28 42
28 51
28 52
28 58
28 59
28 64
28 71
28 72
28 75
28 79
29 30
29 37
29 44
29 45
29 46
29 61
29 66
29 68
29 73
30 32
30 33
30 34
30 36
30 38
30 40
30 53
30 56
30 62
30 64
30 65
30 70
30 72
31 32
31 34
31 37
31 41
31 45
31 46
31 48
31 56
31 60
31 61
31 62
31 66
31 72
31 73
31 76
31 77
31 78
32 39
32 41
32 45
32 49
32 50
32 54
32 58
32 59
32 60
32 61
32 63
32 64
32 69
32 75
32 78
33 34
33 35
33 38
33 42
33 44
33 49
33 50
33 57
33 62
33 63
33 65
33 66
33 72
34 35
34 36
34 39
34 40
34 41
34 43
34 47
34 56
34 65
34 67
34 68
34 69
34 73
34 75
34 76
35 37
35 41
35 42
35 50
35 57
35 59
35 60
35 62
35 63
35 66
35 68
35 69
36 37
36 38
36 42
36 44
36 46
36 50
36 51
36 53
36 61
36 63
36 69
36 74
37 40
37 41
37 42
37 44
37 45
37 47
37 48
37 54
37 57
37 58
37 59
37 60
37 61
37 67
37 68
37 71
37 75
37 77
37 78
37 79
38 40
38 41
38 44
38 49
38 50
38 51
38 60
38 66
38 70
38 72
38 75
38 76
39 42
39 46
39 61
39 62
39 65
39 66
39 68
39 69
39 70
39 71
39 73
39 74
39 75
39 76
40 45
40 48
40 50
40 54
40 58
40 59
40 67
40 72
40 73
40 75
40 77
40 78
41 43
41 48
41 49
41 50
41 51
41 53
41 55
41 56
41 60
41 65
41 72
41 73
41 75
41 77
42 48
42 54
42 64
42 65
42 68
42 69
42 72
42 74
42 78
42 79
43 45
43 48
43 51
43 65
43 66
43 67
43 69
43 75
43 76
44 46
44 47
44 49
44 52
44 60
44 61
44 62
44 64
44 67
44 68
44 76
45 49
45 50
45 52
45 59
45 60
45 61
45 67
45 69
45 70
45 72
46 48
46 56
46 64
46 65
46 68
46 72
46 73
46 75
47 48
47 54
47 55
47 58
47 60
47 65
47 69
47 71
47 74
48 49
48 55
48 56
48 57
48 59
48 60
48 69
48 73
48 75
49 50
49 63
49 65
49 67
49 70
49 71
49 79
50 52
50 53
50 56
50 57
50 58
50 64
50 68
50 69
50 76
50 77
50 79
51 59
51 67
51 69
51 72
52 53
52 59
52 61
52 62
52 70
52 71
52 72
52 73
52 74
53 54
53 55
53 61
53 64
53 73
53 75
53 76
54 56
54 63
54 68
54 69
54 74
54 77
55 56
55 58
55 59
55 67
55 73
55 76
55 77
55 78
55 79
56 58
56 61
56 62
56 63
56 73
56 75
56 78
57 59
57 63
57 64
57 65
57 66
57 67
57 70
57 71
57 73
57 74
57 75
58 60
58 61
58 63
58 69
58 78
59 62
59 63
59 66
59 69
59 75
59 76
60 61
60 67
60 77
61 62
61 64
61 68
61 74
61 75
61 79
62 64
62 66
62 67
62 68
62 69
62 73
62 74
62 79
63 64
63 71
63 77
63 78
64 66
64 73
64 75
65 66
65 72
66 75
66 77
67 69
67 70
67 76
67 79
68 77
69 75
69 78
70 71
70 72
70 76
70 78
71 72
71 73
72 73
72 76
72 78
73 76
73 78
74 76
77 78
77 79
80 81
80 82
80 86
80 89
80 91
80 101
80 106
80 108
80 120
80 123
80 125
80 127
80 130
80 136
80 141
80 152
80 155
80 171
81 83
81 92
81 93
81 99
81 104
81 106
81 111
81 113
81 115
81 116
81 119
81 127
81 128
81 131
81 135
81 137
81 138
81 141
81 142
81 143
81 152
81 154
81 183
82 85
82 86
82 88
82 89
82 90
82 91
82 94
82 100
82 108
82 112
82 117
82 125
82 126
82 127
82 129
82 130
82 131
82 134
82 135
82 139
82 149
82 151
82 157
83 92
83 96
83 97
83 98
83 105
83 115
83 119
83 124
83 127
83 128
83 129
83 130
83 132
83 133
83 134
83 135
83 137
83 138
83 139
83 144
83 145
83 146
83 148
83 150
83 151
83 152
83 153
83 154
83 155
83 156
83 158
84 85
84 86
84 89
84 94
84 99
84 100
84 103
84 104
84 106
84 108
84 109
84 114
84 116
84 118
84 121
84 125
84 127
84 133
84 134
84 138
84 140
84 141
84 142
84 143
84 152
84 153
84 154
84 156
85 87
85 95
85 100
85 102
85 105
85 108
85 111
85 112
85 114
85 115
85 116
85 117
85 118
85 119
85 120
85 128
85 130
85 131
85 136
85 137
85 138
85 141
85 142
85 143
85 145
85 150
85 152
85 154
85 156
86 93
86 99
86 101
86 103
86 107
86 111
86 112
86 119
86 121
86 122
86 124
86 132
86 134
86 140
86 142
86 149
86 152
86 159
87 88
87 92
87 95
87 98
87 99
87 110
87 113
87 116
87 118
87 119
87 120
87 134
87 140
87 142
87 143
87 144
87 159
88 94
88 104
88 107
88 112
88 116
88 117
88 122
88 123
88 126
88 128
88 129
88 130
88 133
88 134
88 140
88 144
88 157
88 158
89 92
89 98
89 99
89 100
89 102
89 103
89 104
89 112
89 115
89 117
89 119
89 121
89 123
89 124
89 127
89 130
89 132
89 137
89 138
89 139
89 142
89 145
89 153
89 155
90 93
90 95
90 97
90 104
90 109
90 112
90 114
90 116
90 119
90 120
90 121
90 124
90 126
90 127
90 130
90 136
90 139
90 140
90 141
90 148
90 149
90 153
91 98
91 101
91 102
91 103
91 105
91 106
91 107
91 108
91 115
91 117
91 120
91 123
91 128
91 129
91 130
91 131
91 133
91 136
91 138
91 141
91 142
91 145
91 146
91 147
91 148
91 149
91 152
91 153
91 156
92 95
92 96
92 98
92 103
92 107
92 115
92 124
92 125
92 126
92 130
92 131
92 132
92 134
92 137
92 142
92 146
92 149
92 151
92 154
93 103
93 105
93 106
93 108
93 109
93 117
93 119
93 120
93 121
93 123
93 127
93 129
93 131
93 142
93 143
93 144
93 146
93 156
93 157
94 96
94 98
94 101
94 102
94 103
94 107
94 111
94 112
94 119
94 122
94 123
94 128
94 129
94 130
94 137
94 140
94 142
94 143
94 150
94 151
94 156
94 159
95 96
95 99
95 102
95 105
95 106
95 115
95 117
95 118
95 119
95 127
95 130
95 135
95 140
95 150
95 154
95 155
95 158
96 97
96 98
96 100
96 101
96 102
96 112
96 118
96 119
96 126
96 131
96 135
96 136
96 138
96 141
96 145
96 148
96 150
96 154
97 98
97 99
97 102
97 103
97 107
97 112
97 114
97 115
97 116
97 120
97 125
97 129
97 132
97 140
97 141
97 145
97 153
97 154
97 158
98 101
98 102
98 114
98 116
98 117
98 121
98 125
98 128
98 134
98 136
98 147
98 153
98 154
98 159
99 102
99 103
99 106
99 107
99 112
99 117
99 123
99 124
99 129
99 131
99 135
99 138
99 139
99 140
99 144
99 145
99 152
99 153
100 103
100 105
100 107
100 109
100 110
100 111
100 112
100 114
100 115
100 119
100 121
100 138
100 142
100 144
100 148
100 158
101 107
101 108
101 113
101 114
101 115
101 116
101 118
101 121
101 123
101 130
101 133
101 134
101 142
101 144
101 146
101 147
101 149
101 151
101 157
101 158
102 103
102 106
102 111
102 120
102 122
102 124
102 138
102 139
102 143
102 151
102 152
102 154
103 104
103 105
103 106
103 108
103 109
103 111
103 116
103 120
103 124
103 129
103 133
103 145
103 149
103 153
104 105
104 112
104 119
104 120
104 121
104 124
104 127
104 128
104 131
104 136
104 138
104 144
104 146
104 147
104 150
104 152
105 108
105 111
105 112
105 113
105 114
105 118
105 119
105 122
105 125
105 127
105 128
105 129
105 134
105 141
105 143
105 144
105 148
105 153
105 154
106 107
106 115
106 117
106 118
106 124
106 127
106 132
106 141
106 143
106 146
106 147
106 151
106 153
106 154
107 108
107 115
107 117
107 120
107 121
107 125
107 132
107 135
107 139
107 145
107 150
107 153
107 156
107 159
108 114
108 116
108 119
108 121
108 130
108 139
108 140
108 141
108 143
108 146
108 149
108 150
109 111
109 112
109 113
109 121
109 125
109 126
109 131
109 137
109 139
109 140
109 143
109 144
109 147
109 149
109 153
109 155
110 111
110 124
110 125
110 127
110 129
110 130
110 132
110 134
110 140
110 146
110 152
111 112
111 115
111 118
111 123
111 124
111 125
111 128
111 129
111 130
111 132
111 135
111 139
111 147
111 152
111 155
111 157
112 115
112 119
112 124
112 125
112 126
112 127
112 128
112 131
112 132
112 134
112 136
112 138
112 145
112 146
112 147
112 154
113 115
113 124
113 128
113 129
113 130
113 132
113 134
113 136
113 140
113 146
113 155
113 157
113 159
114 117
114 120
114 121
114 125
114 136
114 139
114 146
114 152
114 153
114 156
115 120
115 122
115 123
115 128
115 138
115 143
115 145
115 146
115 147
115 148
115 150
115 156
116 117
116 118
116 127
116 129
116 130
116 132
116 136
116 140
116 141
116 142
116 145
116 151
116 152
116 153
116 155
116 157
116 159
117 122
117 123
117 124
117 125
117 126
117 129
117 132
117 133
117 143
117 144
117 145
117 147
117 149
117 152
117 155
117 157
117 158
118 119
118 121
118 122
118 126
118 128
118 133
118 134
118 135
118 138
118 143
118 144
118 146
118 147
118 151
118 156
118 157
118 158
119 120
119 122
119 128
119 134
119 140
119 150
119 156
120 121
120 128
120 131
120 138
120 139
120 142
120 144
120 145
121 124
121 130
121 131
121 136
121 138
121 141
121 149
121 150
121 151
121 155
121 158
122 123
122 130
122 131
122 133
122 135
122 138
122 139
122 140
122 141
122 149
122 152
123 125
123 126
123 131
123 132
123 133
123 136
123 139
123 141
123 148
123 149
123 151
123 152
123 156
124 125
124 130
124 133
124 136
124 138
124 139
124 144
124 146
124 147
124 149
124 152
124 156
125 130
125 133
125 142
125 144
125 156
125 159
126 128
126 132
126 137
126 139
126 140
126 142
126 143
126 148
126 149
126 152
126 155
126 156
126 158
127 128
127 129
127 137
127 138
127 141
127 143
127 146
127 148
127 149
127 151
127 159
128 131
128 134
128 136
128 137
128 138
128 144
128 146
128 148
128 156
128 157
128 158
129 132
129 135
129 136
129 137
129 140
129 147
129 151
129 156
129 158
130 133
130 136
130 148
130 150
130 159
131 132
131 133
131 135
131 136
131 137
131 138
131 141
131 142
131 146
131 150
131 151
131 152
131 155
131 158
132 133
132 135
132 136
132 141
132 146
132 150
132 156
132 157
132 159
133 141
133 148
133 150
133 153
133 154
133 155
133 156
133 159
134 141
134 147
134 150
134 154
135 138
135 140
135 141
135 143
135 147
135 152
135 156
135 158
136 143
136 144
136 148
136 152
136 157
136 158
136 159
137 139
137 154
137 158
137 159
138 139
138 141
138 143
138 145
138 146
138 155
138 156
138 159
139 140
139 141
139 143
139 145
139 149
139 151
139 153
139 155
139 156
139 158
139 159
140 141
140 144
140 145
140 149
140 151
140 153
140 155
140 157
141 142
141 143
141 145
141 146
141 148
141 150
141 151
141 155
141 157
141 158
142 150
142 152
142 156
142 159
143 148
143 150
143 152
143 154
143 156
143 158
143 159
144 149
144 152
145 147
145 148
145 152
145 153
145 154
145 157
145 158
146 148
146 149
147 150
147 152
147 155
147 156
147 157
148 150
148 151
148 152
148 155
148 159
149 154
149 158
150 152
150 154
151 153
151 155
152 159
153 154
153 155
153 157
154 156
154 158
155 156
155 158
156 159
157 158
160 161
161 162
162 163
163 164
164 165
165 166
166 167
167 168
168 169
169 170
170 171
172 173
173 174
174 175
175 176
176 177
177 178
178 179
179 180
180 181
181 182
182 183
