350 1051
2 3 4 5 6 9 10 15 16 18 19 21 26 28 31 36 46 50 54 63 68 75 77 88 97 99 101 108 109 113 120 123 136 139 173 196 201 214 216 219 228 232 239 248 250 272 273 284 291 292 298 312 349
1 6 7 14 23 28 48 60 69 104 107 112 118 125 130 169 200 206 210 211 243 245 265 282 314 321
1 5 8 10 14 16 24 43 51 52 53 62 72 78 81 82 99 105 136 153 170 171 184 191 194 201 202 216 220 226 230 231 238 240 243 247 249 273 286 298 307 313 315 321 336
1 5 11 15 118 297
1 3 4 6 7 8 9 11 12 13 16 17 20 21 28 30 36 37 39 45 46 49 53 63 67 80 81 84 97 106 110 137 152 158 166 176 179 180 182 188 197 201 204 230 235 253 261 278 290 292 293 314 316 322 331 332
1 2 5 7 8 11 13 19 31 44 48 61 62 65 71 72 80 85 89 111 160 166 167 187 209 254 266 267 293 320 335 350
2 5 6 9 10 13 14 15 20 22 23 24 29 43 55 57 64 66 71 74 76 81 91 102 106 109 113 114 142 146 152 155 156 164 167 170 174 175 184 187 193 206 208 213 215 226 236 244 251 257 300 316 324 347
3 5 6 19 20 22 25 32 34 38 40 42 43 47 50 51 56 60 74 90 103 114 128 192 238 259 300 333 336 344 346
1 5 7 12 18 21 27 204 331
1 3 7 12 17 31 59 75 90 94 102 110 115 121 133 134 171 178 277 305 309 328
4 5 6 67 156 215 220
5 9 10 24 25 27 32 33 39 48 103 104 116 145 157 179 302 309 327
5 6 7 27 35 58 69 70 91 92 110 147 164 217 272 277 330 336 345
2 3 7 17 18 35 36 70 73 87 95 150 205 245 267 273
1 4 7 68 94 182 186 307
1 3 5 23 26 32 55 59 82 86 89 93 129 269
5 10 14 79 91 202 222 227
1 9 14 26 34 49 118 120 124 244
1 6 8 78 79 279
5 7 8 22 25 39 60 95 111 183 200 277 279 318 337
1 5 9 29 30 37 38 149 160 180 186 224
7 8 20 34 35 42 83 117 144 165 166 208 210 236 302 321 339
2 7 16 29 30 46 52 73 84 96 112 157 269 271 275
3 7 12 33 115 161
8 12 20 42 57 100 135 216 297
1 16 18 36 38 47 54 58 119 318 338
9 12 13 41 44 50 53 57 65 69 88 99 106 135 136 138 145 151 197 198 221 227 242 261 265 296 310 315 326 328 332 347
1 2 5 128
7 21 23 308
5 21 23 76 87 146 164 188 265
1 6 10 33 96 121 254 258 261
8 12 16 40
12 24 31 45 52 83 148 153 171 196 209 222 284 303
8 18 22 82 158 173 189 191 270
13 14 22 37 47 61 132 140 212 215 268 281 285
1 5 14 26 41 64 68 105 125 150 176 242 280
5 21 35 45 155 162 172 195 324 344
8 21 26 40 44 66 77 80 88 137 138 165 190 199 301 319
5 12 20 54 55 79 90 144 185 311
8 32 38 41 64 100 126 145 168 204 232 256
27 36 40 65 117 154 217 239 297 328
8 22 25 49 56 87 98 111 122 123 133 203 206 224 264 268 334
3 7 8 93 122 141 144 154 199 225 289 290 330
6 27 38 98 152
5 33 37 63 73 83 104 149 219 296
1 5 23 51 131 258
8 26 35 89 101 131 140 212 219 233 245
2 6 12 162 207 291
5 18 42 56 67 125 208 317
1 8 27 94 107 121 178 306
3 8 46 59 62 142 154 163 217 260 283 326
3 23 33 61 75 138 143 193 310 317
3 5 27 70 157 173
1 26 39 71 92 214 229 234 244 313 320 341
7 16 39 58 78 117 132 160 190 218 262 325 339
8 42 49 200
7 25 27 115 308 330
13 26 55 169 342
10 16 51 167 177
2 8 20 67 132 150 186 209 240
6 35 52 77 108
3 6 51 66 102 192 231 243 279 290
1 5 45 86 159 259 270 296 334
7 36 40 101 105 249 250 276
6 27 41 123
7 38 62 85 320 325 333 334
5 11 49 60 92
1 15 36 74 241 308
2 13 27 72 96 97 108 142 163 223 242 348
13 14 53 93
6 7 54 76 103 182
3 6 69
14 23 45 131 159
7 8 68 148 251
1 10 52 114 126 205 253 283 304
7 30 71 113 202 230 285
1 38 61 176 189 271
3 19 55 127 140 159 191 274
17 19 39 85 86 127 236 266 303
5 6 38 84 100 116 141 169 184 193 218 256 323
3 5 7 179
3 16 34 135 172 214 345
22 33 45
5 23 80 120 128 143
6 66 79 256
16 63 79 257 271 278
14 30 42
1 27 38
6 16 47 119 124 162 318
8 10 39 95 130 174 183 274 323 329
7 13 17 98 282
13 54 67
16 43 70 107 196 251
10 15 50 116 137 189 203 280 333
14 20 90 260
23 31 69
1 5 69 252
42 44 91
1 3 27
25 40 80 178 287
1 47 64 149 305
7 10 62 119 127 343
8 12 71 211 250 275
2 12 45
3 36 64 109 112 207 222 308
5 7 27 146 153 335
2 50 93 288 342
1 61 69 122
1 7 105
5 10 13 280
6 20 42 283
2 23 105 161 299
1 7 76 286
7 8 75 126 181
10 24 57 141
12 80 94 124 168 241 264
22 41 55 247 284
2 4 18
26 89 102
1 18 84 205 294 340
10 31 50 129 134 187 246
42 43 108 134 170
1 42 65 130 192 246
18 89 116 129 225 266
2 36 49 237
40 75 114 148 253
78 79 102 221
8 28 84 133 156 324
16 121 124 255
2 90 123 139 155 177 190 231 278 289 294
46 47 73 305
35 55 60 161 175 235 263 282
10 42 128 223 267 269
10 121 122 143 168
25 27 82 147 158 255
1 3 27 147 151 226 312 342
5 38 94 181 207 218 340
27 38 52 139 194
1 130 138 234 288 304 337 350
35 47 78 224 249
43 80 115
7 51 69
52 84 134
22 39 43 151 175 345
12 27 40
7 30 106 198 275
13 135 136 199 213 227 309
33 74 126 294
21 45 101 180
14 36 60 165 181
27 136 144 238 289
5 7 44
3 33 106
41 43 51 163 188 233 262 312 340
7 37 130 185
7 11 128 174 203 211
12 23 53 344
5 34 135 229
63 73 78
6 21 55
24 112 132
37 48 89 331
51 69 154
7 13 30 262 301
22 38 150
5 6 22 272
6 7 59 292
40 116 134 177 183 194 213
2 58 80 311
3 7 122 172 195
3 10 33 198 332
37 82 170
1 34 53 295
7 90 156
7 132 144 237
5 36 77
59 130 168 257 340
10 50 100 185 281 299
5 12 81 283
5 21 149
114 137 150 233
5 15 71 337
20 90 168 260 301
3 7 80
39 155 178 195 235 267 286 299 319
15 21 60
6 7 121 263
5 30 154 197 254 303
34 77 94
38 55 130 220 234 248 263
3 34 78 255 306
8 62 123
7 52 80
3 138 168 326
37 170 185 252 347 348
1 33 93 306
5 27 188 210 223 240
27 146 171
38 43 147 221 276 285 295
2 20 56 307
1 3 5
3 17 76 228
42 94 156
5 9 40 288
14 75 120 241
2 7 42 247
48 105 137
7 22 49 212 225
6 33 60 228 327
2 22 197
2 103 156 239 343
35 47 208
7 147 168 338
1 54 82 229
7 11 35
1 3 25
13 41 51 341
55 80 137 234
1 45 47 346
3 11 190 323
27 127 199 232
17 33 105
69 133 197 270 291 298 319
21 42 140
43 124 208
3 7 136 246
17 27 147 237
1 202 209 252 259 264
54 158 214
3 5 76
3 62 130
1 40 221 343
47 154 181
54 139 190 218
5 132 185
7 22 79 248 258 315
125 175 227
3 8 151
1 41 211
3 60 197 304 313 335
68 116 205 293 329
27 36 69
2 3 62 316
7 18 54 274
2 14 47
121 123 226
3 117 206
1 190 236
3 64 140 287 314
1 64 103 295
7 74 93 311 350
97 195 228
5 75 126
6 31 188 270 300 322
129 135 191
40 80 85
7 86 177
31 46 236
8 63 228
51 95 183 268 276
5 27 31
55 154 164
132 187 190
42 116 228
2 27 30
6 79 124
6 14 133 185
35 42 260 346
16 23 133
34 63 223 254
23 77 86
1 13 166
1 3 14
78 90 244
23 103 146
64 199 260
10 13 20 281
5 86 130
19 20 62 302 317
36 94 110 310 339
35 178 277 287
2 91 132
51 75 111 179
1 33 117
35 76 199
3 113 185
100 249 281
107 139 204
43 130 151
5 43 62 329
1 48 223
1 5 167
5 6 241
120 130 148 309
173 199 250
27 45 63
4 25 41
1 3 223
112 178 185
7 8 254
38 164 183
12 22 279
33 79 188
75 139 240 349
10 101 131
50 191 196
3 15 200
29 57 68 105 341
10 12 147 294
27 52 280
39 169 251
1 136 154 322
3 54 240
2 5 249
3 27 236
5 7 243
49 52 279
20 26 89
38 185 223
6 54 66
2 3 22
5 254 312 325
80 90 220 327
7 37 128
55 66 322
27 51 194 345
12 209 323
10 27 41
90 241 290 338
13 43 57
5 9 162
5 27 171
8 66 94
42 63 66
6 106 240
3 8 13
20 139 182
26 213 329
22 55 280 349
120 137 154 177
54 217 308
58 107 136
102 211 232
8 37 157 348
13 82 144 326
8 219 268
7 27 195
69 195 344
1 304 339
6 139 251
