0 1
0 2
0 3
0 4
0 5
0 8
0 9
0 14
0 15
0 17
0 18
0 20
0 25
0 27
0 30
0 35
0 45
0 49
0 53
0 62
0 67
0 74
0 76
0 87
0 96
0 98
0 100
0 107
0 108
0 112
0 119
0 122
0 135
0 138
0 172
0 195
0 200
0 213
0 215
0 218
0 227
0 231
0 238
0 247
0 249
0 271
0 272
0 283
0 290
0 291
0 297
0 311
0 348
1 5
1 6
1 13
1 22
1 27
1 47
1 59
1 68
1 103
1 106
1 111
1 117
1 124
1 129
1 168
1 199
1 205
1 209
1 210
1 242
1 244
1 264
1 281
1 313
1 320
2 4
2 7
2 9
2 13
2 15
2 23
2 42
2 50
2 51
2 52
2 61
2 71
2 77
2 80
2 81
2 98
2 104
2 135
2 152
2 169
2 170
2 183
2 190
2 193
2 200
2 201
2 215
2 219
2 225
2 229
2 230
2 237
2 239
2 242
2 246
2 248
2 272
2 285
2 297
2 306
2 312
2 314
2 320
2 335
3 4
3 10
3 14
3 117
3 296
4 5
4 6
4 7
4 8
4 10
4 11
4 12
4 15
4 16
4 19
4 20
4 27
4 29
4 35
4 36
4 38
4 44
4 45
4 48
4 52
4 62
4 66
4 79
4 80
4 83
4 96
4 105
4 109
4 136
4 151
4 157
4 165
4 175
4 178
4 179
4 181
4 187
4 196
4 200
4 203
4 229
4 234
4 252
4 260
4 277
4 289
4 291
4 292
4 313
4 315
4 321
4 330
4 331
5 6
5 7
5 10
5 12
5 18
5 30
5 43
5 47
5 60
5 61
5 64
5 70
5 71
5 79
5 84
5 88
5 110
5 159
5 165
5 166
5 186
5 208
5 253
5 265
5 266
5 292
5 319
5 334
5 349
6 8
6 9
6 12
6 13
6 14
6 19
6 21
6 22
6 23
6 28
6 42
6 54
6 56
6 63
6 65
6 70
6 73
6 75
6 80
6 90
6 101
6 105
6 108
6 112
6 113
6 141
6 145
6 151
6 154
6 155
6 163
6 166
6 169
6 173
6 174
6 183
6 186
6 192
6 205
6 207
6 212
6 214
6 225
6 235
6 243
6 250
6 256
6 299
6 315
6 323
6 346
7 18
7 19
7 21
7 24
7 31
7 33
7 37
7 39
7 41
7 42
7 46
7 49
7 50
7 55
7 59
7 73
7 89
7 102
7 113
7 127
7 191
7 237
7 258
7 299
7 332
7 335
7 343
7 345
8 11
8 17
8 20
8 26
8 203
8 330
9 11
9 16
9 30
9 58
9 74
9 89
9 93
9 101
9 109
9 114
9 120
9 132
9 133
9 170
9 177
9 276
9 304
9 308
9 327
10 66
10 155
10 214
10 219
11 23
11 24
11 26
11 31
11 32
11 38
11 47
11 102
11 103
11 115
11 144
11 156
11 178
11 301
11 308
11 326
12 26
12 34
12 57
12 68
12 69
12 90
12 91
12 109
12 146
12 163
12 216
12 271
12 276
12 329
12 335
12 344
13 16
13 17
13 34
13 35
13 69
13 72
13 86
13 94
13 149
13 204
13 244
13 266
13 272
14 67
14 93
14 181
14 185
14 306
15 22
15 25
15 31
15 54
15 58
15 81
15 85
15 88
15 92
15 128
15 268
16 78
16 90
16 201
16 221
16 226
17 25
17 33
17 48
17 117
17 119
17 123
17 243
18 77
18 78
18 278
19 21
19 24
19 38
19 59
19 94
19 110
19 182
19 199
19 276
19 278
19 317
19 336
20 28
20 29
20 36
20 37
20 148
20 159
20 179
20 185
20 223
21 33
21 34
21 41
21 82
21 116
21 143
21 164
21 165
21 207
21 209
21 235
21 301
21 320
21 338
22 28
22 29
22 45
22 51
22 72
22 83
22 95
22 111
22 156
22 268
22 270
22 274
23 32
23 114
23 160
24 41
24 56
24 99
24 134
24 215
24 296
25 35
25 37
25 46
25 53
25 57
25 118
25 317
25 337
26 40
26 43
26 49
26 52
26 56
26 64
26 68
26 87
26 98
26 105
26 134
26 135
26 137
26 144
26 150
26 196
26 197
26 220
26 226
26 241
26 260
26 264
26 295
26 309
26 314
26 325
26 327
26 331
26 346
27 127
28 307
29 75
29 86
29 145
29 163
29 187
29 264
30 32
30 95
30 120
30 253
30 257
30 260
31 39
32 44
32 51
32 82
32 147
32 152
32 170
32 195
32 208
32 221
32 283
32 302
33 81
33 157
33 172
33 188
33 190
33 269
34 36
34 46
34 60
34 131
34 139
34 211
34 214
34 267
34 280
34 284
35 40
35 63
35 67
35 104
35 124
35 149
35 175
35 241
35 279
36 44
36 154
36 161
36 171
36 194
36 323
36 343
37 39
37 43
37 65
37 76
37 79
37 87
37 136
37 137
37 164
37 189
37 198
37 300
37 318
38 53
38 54
38 78
38 89
38 143
38 184
38 310
39 40
39 63
39 99
39 125
39 144
39 167
39 203
39 231
39 255
40 64
40 116
40 153
40 216
40 238
40 296
40 327
41 48
41 55
41 86
41 97
41 110
41 121
41 122
41 132
41 202
41 205
41 223
41 263
41 267
41 333
42 92
42 121
42 140
42 143
42 153
42 198
42 224
42 288
42 289
42 329
43 97
43 151
44 62
44 72
44 82
44 103
44 148
44 218
44 295
45 50
45 130
45 257
46 88
46 100
46 130
46 139
46 211
46 218
46 232
46 244
47 161
47 206
47 290
48 55
48 66
48 124
48 207
48 316
49 93
49 106
49 120
49 177
49 305
50 58
50 61
50 141
50 153
50 162
50 216
50 259
50 282
50 325
51 60
51 74
51 137
51 142
51 192
51 309
51 316
52 69
52 156
52 172
53 70
53 91
53 213
53 228
53 233
53 243
53 312
53 319
53 340
54 57
54 77
54 116
54 131
54 159
54 189
54 217
54 261
54 324
54 338
55 199
56 114
56 307
56 329
57 168
57 341
58 166
58 176
59 66
59 131
59 149
59 185
59 208
59 239
60 76
60 107
61 65
61 101
61 191
61 230
61 242
61 278
61 289
62 85
62 158
62 258
62 269
62 295
62 333
63 100
63 104
63 248
63 249
63 275
64 122
65 84
65 319
65 324
65 332
65 333
66 91
67 73
67 240
67 307
68 71
68 95
68 96
68 107
68 141
68 162
68 222
68 241
68 347
69 92
70 75
70 102
70 181
72 130
72 158
73 147
73 250
74 113
74 125
74 204
74 252
74 282
74 303
75 112
75 201
75 229
75 284
76 175
76 188
76 270
77 126
77 139
77 158
77 190
77 273
78 84
78 85
78 126
78 235
78 265
78 302
79 83
79 99
79 115
79 140
79 168
79 183
79 192
79 217
79 255
79 322
80 178
81 134
81 171
81 213
81 344
83 119
83 127
83 142
84 255
85 256
85 270
85 277
88 118
88 123
88 161
88 317
89 94
89 129
89 173
89 182
89 273
89 322
89 328
90 97
90 281
92 106
92 195
92 250
93 115
93 136
93 188
93 202
93 279
93 332
94 259
96 251
99 177
99 286
100 148
100 304
101 118
101 126
101 342
102 210
102 249
102 274
104 108
104 111
104 206
104 221
104 307
105 145
105 152
105 334
106 287
106 341
107 121
109 279
110 282
111 160
111 298
112 285
113 125
113 180
114 140
115 123
115 167
115 240
115 263
116 246
116 283
119 204
119 293
119 339
120 128
120 133
120 186
120 245
121 133
121 169
122 129
122 191
122 245
123 128
123 224
123 265
124 236
125 147
125 252
126 220
127 132
127 155
127 323
128 254
129 138
129 154
129 176
129 189
129 230
129 277
129 288
129 293
130 304
131 160
131 174
131 234
131 262
131 281
132 222
132 266
132 268
133 142
133 167
134 146
134 157
134 254
135 146
135 150
135 225
135 311
135 341
136 180
136 206
136 217
136 339
137 138
137 193
138 233
138 287
138 303
138 336
138 349
139 223
139 248
143 150
143 174
143 344
145 197
145 274
146 198
146 212
146 226
146 308
147 293
148 179
149 164
149 180
150 237
150 288
153 162
153 187
153 232
153 261
153 311
153 339
154 184
155 173
155 202
155 210
156 343
157 228
161 330
163 261
163 300
165 271
166 291
167 176
167 182
167 193
167 212
168 310
169 171
169 194
170 197
170 331
172 294
174 236
176 256
176 339
177 184
177 280
177 298
178 282
180 232
181 336
182 259
182 300
184 194
184 234
184 266
184 285
184 298
184 318
186 262
187 196
187 253
187 302
189 219
189 233
189 247
189 262
190 254
190 305
193 325
194 251
194 346
194 347
195 305
196 209
196 222
196 239
198 220
198 275
198 284
198 294
199 306
201 227
203 287
204 240
205 246
207 211
207 224
208 227
208 326
210 238
210 342
212 337
213 228
216 340
217 233
218 345
219 322
220 231
222 269
222 290
222 297
222 318
225 245
226 236
227 251
227 258
227 263
231 342
235 247
235 257
235 314
239 303
239 312
239 334
240 292
240 328
242 315
243 273
248 286
248 313
249 294
250 310
250 349
253 269
253 299
253 321
259 267
259 275
267 345
276 280
278 301
278 316
279 309
279 338
280 286
289 328
293 308
303 348
307 340
311 321
321 324
322 326
325 344
328 337
338 348
343 347
