0 1
0 2
0 3
0 4
0 5
0 6
0 7
0 8
0 11
0 12
0 13
0 14
0 15
0 17
0 18
0 19
0 20
0 22
0 25
0 26
0 28
0 33
0 34
0 36
0 37
0 41
0 49
0 51
0 55
0 74
0 82
0 85
0 87
0 91
0 93
0 100
0 111
0 112
0 116
0 118
0 119
0 120
0 125
0 137
0 139
0 143
0 180
1 4
1 5
1 6
1 9
1 16
1 17
1 18
1 21
1 40
1 48
1 70
1 73
1 103
1 115
1 117
1 129
1 136
1 138
1 145
1 151
1 161
1 167
1 170
1 192
1 193
2 4
2 5
2 9
2 16
2 18
2 21
2 40
2 42
2 49
2 50
2 51
2 57
2 66
2 73
2 78
2 80
2 100
2 103
2 107
2 109
2 127
2 157
2 170
2 174
2 189
2 198
3 6
3 120
3 121
4 7
4 10
4 12
4 22
4 28
4 47
4 51
4 64
4 68
4 69
4 72
4 84
4 104
4 114
4 133
4 135
4 143
4 146
4 147
5 7
5 8
5 10
5 11
5 13
5 14
5 16
5 20
5 22
5 31
5 33
5 36
5 41
5 46
5 47
5 48
5 64
5 70
5 90
5 94
5 114
5 116
5 117
5 124
5 144
5 152
5 153
5 159
5 163
5 191
6 8
6 24
6 26
6 27
6 28
6 35
6 38
6 52
6 53
6 59
6 73
6 79
6 80
6 91
6 93
6 102
6 112
6 117
6 122
6 153
6 174
6 175
7 9
7 10
7 13
7 23
7 25
7 30
7 46
7 62
7 66
7 69
7 71
7 76
7 96
7 117
7 134
7 147
7 174
8 40
8 56
8 84
8 102
8 119
9 11
9 12
9 19
9 24
9 96
9 156
9 196
10 30
10 38
10 43
10 45
10 50
10 130
11 14
11 15
11 32
11 37
11 39
11 43
11 58
11 60
11 61
11 79
11 88
11 108
11 123
11 132
11 142
11 150
11 158
11 159
11 173
11 179
11 182
12 35
12 48
12 56
12 67
12 76
12 78
12 81
12 131
12 137
12 176
12 183
12 184
13 17
13 31
13 50
13 54
13 77
13 101
13 102
13 111
13 121
13 128
13 136
13 160
14 15
14 20
14 24
14 26
14 27
14 29
14 32
14 34
14 37
14 44
14 47
14 57
14 62
14 63
14 64
14 115
14 126
14 138
14 171
15 23
15 25
15 31
15 35
15 36
15 38
15 41
15 44
15 86
15 93
15 97
15 113
15 126
15 137
15 144
15 145
15 158
15 182
16 29
16 33
16 34
16 55
16 60
16 72
16 77
16 87
16 106
16 119
16 191
16 198
17 19
17 42
17 44
17 65
17 136
17 169
18 21
18 27
18 54
18 92
18 95
18 100
18 123
18 148
18 186
19 95
19 110
19 129
20 52
20 89
21 29
21 30
21 53
21 80
21 89
21 141
21 144
21 157
21 172
21 199
22 23
22 42
22 56
22 61
22 92
22 94
22 131
22 153
23 88
23 124
23 161
23 178
24 167
25 59
25 105
25 112
25 156
25 158
25 162
25 176
25 183
26 32
26 39
26 54
26 57
26 68
26 70
26 74
26 86
26 87
26 128
26 134
26 148
26 195
26 199
27 159
28 53
28 105
29 188
30 111
30 122
31 45
31 84
31 90
31 172
31 187
32 62
32 67
32 97
32 125
33 185
34 43
34 58
34 63
34 76
34 79
34 178
35 49
35 65
35 92
35 154
35 166
36 98
36 115
37 104
37 110
37 151
37 185
37 197
38 39
38 45
38 46
38 59
38 63
38 65
38 98
38 163
38 182
39 52
39 106
39 194
40 66
40 75
40 90
40 99
40 126
40 134
40 149
41 88
41 142
41 170
42 58
42 83
42 181
43 82
43 98
43 118
43 133
43 163
43 168
43 172
44 135
44 161
44 176
45 55
45 91
45 177
46 140
46 166
49 81
50 61
50 67
50 74
50 78
50 122
50 168
50 197
51 150
52 60
52 139
52 146
52 169
53 85
53 118
53 192
54 75
54 77
54 86
54 131
54 132
54 198
55 108
56 97
56 185
58 72
58 85
58 107
58 166
58 177
58 197
59 96
59 155
59 161
59 164
60 99
60 195
61 68
61 81
61 141
62 103
63 169
63 173
64 124
65 69
65 71
65 193
66 164
67 71
67 82
67 83
67 89
67 105
67 160
67 179
69 113
69 188
71 101
71 148
71 156
73 129
74 75
74 140
76 104
76 116
76 130
76 181
77 108
78 109
78 147
79 83
79 109
79 196
80 95
80 107
80 151
80 165
81 127
82 123
82 155
83 170
84 191
86 99
86 143
86 160
87 189
89 175
91 157
91 187
92 110
92 152
92 175
93 94
95 101
95 113
96 120
96 146
96 173
97 165
98 162
98 186
101 106
101 155
104 125
104 171
105 150
106 138
107 127
107 164
108 121
109 188
110 180
110 184
111 114
112 195
113 165
113 177
115 128
115 135
115 154
115 162
118 142
120 152
121 179
121 186
122 178
122 194
123 139
123 199
125 168
126 149
126 190
127 141
128 130
128 184
128 196
129 132
129 189
129 198
130 133
132 171
134 149
137 145
138 140
140 180
147 154
151 179
151 181
151 190
155 183
162 167
168 188
174 190
177 194
180 192
185 187
185 193
