200 597
2 3 4 5 6 7 8 9 12 13 14 15 16 18 19 20 21 23 26 27 29 34 35 37 38 42 50 52 56 75 83 86 88 92 94 101 112 113 117 119 120 121 126 138 140 144 181
1 5 6 7 10 17 18 19 22 41 49 71 74 104 116 118 130 137 139 146 152 162 168 171 193 194
1 5 6 10 17 19 22 41 43 50 51 52 58 67 74 79 81 101 104 108 110 128 158 171 175 190 199
1 7 121 122
1 2 3 8 11 13 23 29 48 52 65 69 70 73 85 105 115 134 136 144 147 148
1 2 3 8 9 11 12 14 15 17 21 23 32 34 37 42 47 48 49 65 71 91 95 115 117 118 125 145 153 154 160 164 192
1 2 4 9 25 27 28 29 36 39 53 54 60 74 80 81 92 94 103 113 118 123 154 175 176
1 5 6 10 11 14 24 26 31 47 63 67 70 72 77 97 118 135 148 175
1 6 7 41 57 85 103 120
2 3 8 12 13 20 25 97 157 197
5 6 8 31 39 44 46 51 131
1 6 10 15 16 33 38 40 44 59 61 62 80 89 109 124 133 143 151 159 160 174 180 183
1 5 10 36 49 57 68 77 79 82 132 138 177 184 185
1 6 8 18 32 51 55 78 102 103 112 122 129 137 161
1 6 12 16 21 25 27 28 30 33 35 38 45 48 58 63 64 65 116 127 139 172
1 12 15 24 26 32 36 37 39 42 45 87 94 98 114 127 138 145 146 159 183
2 3 6 30 34 35 56 61 73 78 88 107 120 192 199
1 2 14 20 43 45 66 137 170
1 2 3 22 28 55 93 96 101 124 149 187
1 10 18 96 111 130
1 6 15 53 90
2 3 19 30 31 54 81 90 142 145 158 173 200
1 5 6 24 43 57 62 93 95 132 154
8 16 23 89 125 162 179
7 10 15 168
1 8 16 60 106 113 157 159 163 177 184
1 7 15 33 40 55 58 69 71 75 87 88 129 135 149 196 200
7 15 19 160
1 5 7 54 106
15 17 22 189
8 11 22 112 123
6 14 16 46 85 91 173 188
12 15 27 63 68 98 126
1 6 17 186
1 15 17 44 59 64 77 80 179
7 13 16 50 66 93 155 167
1 6 16 99 116
1 12 15 105 111 152 186 198
7 11 16 40 46 47 60 64 66 99 164 183
12 27 39 53 107 195
2 3 9 67 76 91 100 127 135 150
1 6 16 89 143 171
3 18 23 59 84 182
11 12 35 83 99 119 134 164 169 173
15 16 18 136 162 177
11 32 39 56 92 178
6 8 39 141 167
5 6 15
2 6 13
1 3 36 82
3 11 14 62 68 75 79 123 169 198
1 3 5 151
7 21 40 61 140 147 170
7 22 29 86 119 193
14 19 27 76 78 87 132 133 199
1 17 46 109
9 13 23 98 186
3 15 27
12 35 43 73 86 108 167 178 198
7 26 39 97 156 162 165
12 17 53 100 196
12 23 51 69 82 142
8 15 33 104
15 35 39 170 174
5 6 15 125
18 36 39 70 72 194
3 8 41 165
13 33 51 72 83 84 90 106 161 180
5 27 62
5 8 66 114 189
2 6 27
8 66 68 102 149 157
5 17 59
2 3 7 130
1 27 51 76 141
41 55 75
8 13 35 105 117 131 182
14 17 55 109
3 13 51 110 148
7 12 35 84 110 197
3 7 22 96 108 152 166
13 50 62 128
1 44 68 124 156
43 68 80 171
5 9 32 192
1 54 59
16 27 55 100 144 161
1 17 27 190
12 24 42
21 22 68 176
6 32 41
1 7 46 158 188
19 23 36 111 153 176
1 7 16 95
6 23 94
19 20 81 102 114
8 10 60 121 147 174
16 33 57 166
37 39 44 163 187
41 61 87
1 3 19
14 72 96 107 156
7 9 14
2 3 63
5 38 77 126 172
26 29 68 151
17 40 102 139
3 59 81 128 165
12 56 78 122
3 79 80 189
20 38 93 181 185
1 14 31 115
1 7 26 196
16 70 96 166 178
5 6 112
2 15 37 129 136 155 163
1 6 77
2 6 7 8
1 44 54 143
1 9 17
1 4 97 153
4 14 109 180 187
7 31 51 179 195
12 19 83 140 200
6 24 65
1 33 105 169
15 16 41 150 191
3 82 108 142
14 27 116 131 185 197
2 20 74 133 190 199
11 77 129 134
13 23 55
12 55 130 172
5 44 131
8 27 41 150
5 45 116
2 14 18
1 13 16 146
2 15 107 141
1 53 124
47 75 139 181
22 62 128
12 42 119
1 5 87
6 16 22
2 16 138
5 53 97
5 8 79 155
19 27 72
41 127 135
12 52 106
2 38 81 180 182 191
6 93 121
6 7 23
36 116 148
60 83 102 184
10 26 72
3 22 92
12 16 26
6 12 28
14 68 87
2 24 45 60
26 99 116 168
6 39 44
60 67 108
81 98 114
36 47 59
2 25 163
44 51 126 189
18 53 64
2 3 42 84
15 105 133
22 32 44
12 64 97
3 7 8 191
7 90 93
13 26 45
46 59 114 195
24 35 123
12 68 122 152
1 111 141 193
43 77 152
12 16 39
13 26 156
13 111 129
34 38 57 188 194
19 99 122
32 92 186
30 70 110 169
3 88 130
127 152 175
6 17 85
2 54 181
2 66 186
40 123 178
27 61 113
10 80 129
38 51 59
3 17 55 130
22 27 124
