200 504
6 8 18 20 23 33 34 41 42 47 132
3 4 8 9 10 13 15 21 23 25 26 30 34 35 36 37 39 46 47 49 52 146 165 167
2 5 7 11 12 13 16 17 21 26 33 39 41 42 45 46 49 50 55 59 80 103 108 172 194
2 6 8 9 12 15 16 28 29 36 38 40 42 46 134 158
3 6 7 9 10 11 13 15 17 25 29 33 39 49 95 96 97 101 154
1 4 5 9 14 17 18 19 27 34 36 40 41 49
3 5 9 10 14 17 19 20 22 28 30 38 40 44 47 49 78 87 140 148 181
1 2 4 12 21 23 24 27 28 31 41 42 49 91
2 4 5 6 7 15 16 19 32 35 37 39 40 42 45 46 149 150 179
2 5 7 16 22 23 25 34 41 42 45 48 49
3 5 14 15 18 20 24 25 27 28 29 31 33 35 38 40 43 47 98 118
3 4 8 13 14 20 21 27 29 30 31 32 37 38 40 43 49 102
2 3 5 12 16 17 26 27 29 30 34 36 37 41 42 43 47 49 50
6 7 11 12 16 26 29 31 37 43 44 47 50 76 107 121 174
2 4 5 9 11 19 22 24 25 27 29 41 47 49 105 143
3 4 9 10 13 14 19 21 24 27 30 35 36 39 49 50 69 82 110 155
3 5 6 7 13 19 24 25 28 45 46 48 89 94
1 6 11 25 29 31 38 39 43 46 49 122 137
6 7 9 15 16 17 20 23 24 27 30 31 34 37 38 41 42 45 86 153 164 196
1 7 11 12 19 26 30 31 32 35 40 41 45 46 47 62 113 145
2 3 8 12 16 22 31 34 35 38 39 40 49 147 162
7 10 15 21 23 27 29 31 34 41 43 44 46 48 65 119 161
1 2 8 10 19 22 28 38 42 125
8 11 15 16 17 19 26 27 29 30 32 34 35 42 44 45 57 67 135
2 5 10 11 15 17 18 27 29 32 38 44 47 63 112 128
2 3 13 14 20 24 28 31 32 34 35 39 46 47
6 8 11 12 13 15 16 19 22 24 25 28 36 43 45 46 66 68
4 7 8 11 17 23 26 27 29 32 34 35 42 43 46 49 104 109 126
4 5 11 12 13 14 15 18 22 24 25 28 31 40 47 48 50 53 117 199
2 7 12 13 16 19 20 24 32 37 43 47 99 100 151
8 11 12 14 18 19 20 21 22 26 29 32 36 37 39 44 47 60 70 72 120 124 189 193
9 12 20 24 25 26 28 30 31 34 39 44 46 58 93 123 138 185
1 3 5 11 39 40
1 2 6 10 13 19 21 22 24 26 28 32 37 39 47 49 85 131 159
2 9 11 16 20 21 24 26 28 42 90 190
2 4 6 13 16 27 31 37 38 48 50 160 180
2 9 12 13 14 19 30 31 34 36 41 43 44 45 50 127 157 166 182
4 7 11 12 18 19 21 23 25 36 41 43 48 84 129
2 3 5 9 16 18 21 26 31 32 33 34 41 42 45 49 64 144 168
4 6 7 9 11 12 20 21 29 33 43 46 49 139
1 3 6 8 10 13 15 19 20 22 37 38 39 46 49 61 191
1 3 4 8 9 10 13 19 23 24 28 35 39 44 46 50 56 75 175
11 12 13 14 18 22 27 28 30 37 38 40 50 71 88 111
7 14 22 24 25 31 32 37 42 45 47 51 54 130
3 9 10 17 19 20 24 27 37 39 44 46 47 173
2 3 4 9 17 18 20 22 26 27 28 32 40 41 42 45 47 77 79 106 115 163 184
1 2 7 11 13 14 15 20 25 26 29 30 31 34 44 45 46 74 133 141 156
10 17 22 29 36 38 49
2 3 5 6 7 8 10 12 13 15 16 18 21 28 34 39 40 41 48 81 176 183 198
3 13 14 16 29 36 37 42 43
44 186
2 116
29 73
44 83
3
42
24
32
3
31
41
20
25
39
22
27
24
27
16 170
31 187
43 92 197
31
53
47
42
14
46
7 171 192
46
3 114
49
16
54
38
34
19
7
43
17
35
8
71
32
17
5
5
5
11
30
30
5
12
3
28
15
46
14
3 177
28
16
43
25 169
20 136
80
46
52
29
11
22
31
14
18
32
31
23
28
37
25
38
44
34
1
47
4
24
113
18
32 142
40
7
47
138
15 178
39
20
2
21
7
9
9 152
30
150 200
19
5
16
47
37
4
34
36 188
22
21
46
19
2
37
2
39
112
69
78
3
45
14
42
49
108
143
9
36
7
37
49
46
32
51
70
160
31
35
41
78
31 195
3
193
19
71
49
29
152
