0 5
0 20
0 26
0 29
0 34
0 115
0 117
0 146
1 7
1 14
1 19
1 25
1 29
1 30
1 31
1 35
1 38
1 86
2 3
2 4
2 6
2 13
2 17
2 38
2 72
2 139
2 149
3 7
3 30
3 38
3 46
3 48
4 6
4 15
4 16
4 18
4 21
4 34
4 35
4 37
4 39
4 46
4 69
5 7
5 10
5 30
5 32
6 8
6 9
6 26
6 33
6 35
6 37
6 38
6 39
6 64
6 107
7 16
7 19
7 23
7 37
7 38
7 39
8 11
8 13
8 14
8 22
8 37
8 153
8 155
9 13
9 14
9 20
9 23
9 24
9 28
9 29
9 31
9 37
9 38
9 83
10 19
10 22
10 28
10 33
10 35
10 36
10 155
11 12
11 16
11 25
11 33
11 35
11 36
11 37
11 63
11 69
11 144
12 21
12 30
12 38
12 132
13 17
13 26
13 31
14 22
14 25
14 33
14 34
14 38
14 109
15 16
15 18
15 20
15 22
15 25
15 32
15 35
15 39
16 31
16 32
16 48
17 18
17 29
17 157
18 31
18 36
18 146
19 20
19 32
20 22
20 23
20 25
20 28
20 30
20 38
20 100
20 122
21 27
21 36
21 137
21 159
22 30
22 31
22 39
22 91
22 123
23 29
23 37
23 61
24 31
24 35
24 90
25 28
25 32
25 35
25 36
25 37
25 38
25 120
26 27
26 28
26 29
26 32
26 34
26 35
26 36
26 75
26 105
26 147
27 69
28 30
28 34
28 36
28 87
28 108
29 59
29 136
30 34
30 37
30 39
30 101
31 35
31 38
31 39
31 46
31 76
33 72
34 36
35 39
35 53
35 152
36 142
37 38
37 92
37 150
38 52
38 103
40 44
40 47
40 52
40 53
40 55
40 63
40 66
40 153
41 58
41 74
41 134
41 159
42 45
42 53
42 56
42 59
42 64
42 72
42 87
43 52
43 55
43 65
43 77
43 79
43 133
44 47
44 51
44 52
44 57
44 70
44 112
45 48
45 52
45 58
45 60
45 64
45 68
45 79
46 51
46 57
46 58
46 59
46 63
46 65
46 95
46 115
46 121
47 48
47 58
47 64
47 66
47 132
48 64
48 68
48 79
49 51
49 61
49 62
49 63
49 65
49 74
49 75
49 138
50 51
50 56
50 65
50 72
50 73
50 74
51 59
51 61
51 62
51 64
51 69
51 70
51 156
52 54
52 60
52 61
52 66
52 73
52 74
52 118
53 61
54 56
54 58
54 61
54 62
54 68
54 69
54 76
54 113
55 58
55 59
55 60
55 61
55 64
55 68
55 78
55 79
56 58
56 66
56 79
57 99
57 148
58 59
58 61
58 71
58 75
58 79
58 86
59 61
60 68
60 69
61 62
61 73
61 77
61 100
62 63
62 74
63 65
64 74
64 77
65 69
65 74
65 79
66 70
66 72
66 73
66 79
66 131
66 134
67 70
67 74
67 146
68 74
68 79
68 149
69 70
69 74
69 77
69 155
70 74
70 113
70 141
72 119
73 76
73 77
73 78
73 113
74 89
75 78
75 132
77 79
77 83
77 107
78 131
80 87
80 89
80 96
80 97
80 98
80 103
80 109
80 118
80 146
81 97
81 98
81 106
81 110
81 159
82 87
82 96
82 101
82 104
82 105
82 107
82 111
82 112
82 115
83 95
83 97
83 98
83 105
83 106
83 110
84 85
84 90
84 99
84 100
84 105
84 109
84 113
84 144
85 87
85 92
85 93
85 106
85 108
85 117
85 134
86 93
86 97
87 97
87 104
87 107
87 108
88 96
88 109
88 110
88 117
89 92
89 96
89 102
89 105
89 112
89 118
90 92
90 108
90 140
91 100
91 102
91 106
91 116
92 95
92 96
92 99
92 108
92 113
92 117
93 101
93 105
93 109
93 113
93 143
93 148
94 102
94 103
94 115
94 119
95 97
95 100
95 105
95 111
95 112
95 124
96 97
96 103
96 108
97 98
97 102
97 104
97 111
97 113
98 100
99 101
99 102
100 106
100 113
100 115
100 119
101 103
101 107
101 108
101 110
101 113
101 116
102 105
102 107
102 109
102 112
102 115
102 116
103 104
103 105
103 106
104 105
104 108
104 112
104 118
105 109
105 113
105 114
106 110
106 111
107 113
108 112
108 115
108 130
109 114
110 119
110 145
110 150
111 112
111 118
112 113
113 119
114 118
115 117
116 118
117 146
117 153
119 155
120 122
120 126
120 150
120 153
120 157
121 122
121 123
121 124
121 143
121 149
121 157
122 134
122 153
122 159
123 126
123 133
123 134
123 136
123 149
124 126
124 143
124 147
124 159
125 126
125 128
125 130
125 132
125 145
125 146
126 127
126 128
126 131
126 147
126 149
126 152
126 154
126 158
127 128
127 132
127 136
127 139
127 140
127 156
127 158
128 147
128 156
129 144
129 146
129 153
129 155
129 157
130 138
130 141
130 152
130 154
130 155
130 159
132 133
132 142
132 157
133 136
133 143
133 147
133 149
133 157
133 158
134 142
134 145
134 146
134 149
134 152
134 156
135 137
135 144
135 147
135 152
135 155
136 138
136 140
136 143
136 151
137 143
137 147
137 153
137 157
137 158
137 159
138 140
138 146
139 147
139 152
139 159
140 149
140 151
140 154
141 143
141 148
141 151
141 155
142 146
142 151
142 158
143 145
143 158
145 150
145 152
145 155
145 158
146 153
146 158
147 157
148 156
149 152
149 155
150 156
151 155
153 156
155 156
155 157
155 158
156 158
