160 622
6 21 27 30 35 116 118 147
8 15 20 26 30 31 32 36 39 87
4 5 7 14 18 39 73 140 150
3 8 31 39 47 49
3 7 16 17 19 22 35 36 38 40 47 70
1 8 11 31 33
3 5 9 10 27 34 36 38 39 40 65 108
2 4 6 17 20 24 38 39 40
7 12 14 15 23 38 154 156
7 14 15 21 24 25 29 30 32 38 39 84
6 20 23 29 34 36 37 156
9 13 17 26 34 36 37 38 64 70 145
12 22 31 39 133
3 9 10 18 27 32
2 9 10 23 26 34 35 39 110
5 17 19 21 23 26 33 36 40
5 8 12 16 32 33 49
3 14 19 30 158
5 16 18 32 37 147
2 8 11 21 33
1 10 16 20 23 24 26 29 31 39 101 123
5 13 28 37 138 160
9 11 15 16 21 31 32 40 92 124
8 10 21 30 38 62
10 32 36 91
2 12 15 16 21 29 33 36 37 38 39 121
1 7 14 28 29 30 33 35 36 37 76 106 148
22 27 70
10 11 21 26 27 31 35 37 88 109
1 2 10 18 24 27 60 137
2 4 6 13 21 23 29 35 38 40 102
2 10 14 17 19 23 25 36 39 40 47 77
6 16 17 20 26 27
7 11 12 15 73
1 5 15 27 29 31 37
2 5 7 11 12 16 25 26 27 32 40 54 153
11 12 19 22 26 27 29 35 143
5 7 8 9 10 12 24 26 31 39 93 151
2 3 4 7 8 10 13 15 21 26 32 38 53 104
5 7 8 16 23 31 32 36
45 48 53 54 56 64 67 154
59 75 135 160
46 54 57 60 65 73 88
53 56 66 78 80 134
41 48 52 53 58 71 113
43 49 53 59 61 65 69 80
4 5 32 52 58 59 60 64 66 96 116 122
41 45 49 59 65 67 133
4 17 46 48 65 69 80
52 62 63 64 66 75 76 139
52 57 66 73 74 75
45 47 50 51 60 62 63 65 70 71 157
39 41 44 45 46 55 61 62 67 74 75 119
36 41 43 62
53 57 59 62 63 69 70 77 114
41 44 59 60 61 62 65 69 79 80
43 51 55 59 67 80
45 47 100 149
42 46 47 48 55 56 57 60 62 72 76 80 87
30 43 47 52 56 59 62
46 53 56 69 70
24 50 52 53 54 55 56 59 60 63 74 78 101
50 52 55 62 64 75
12 41 47 50 63 66
7 43 46 48 49 52 56 75 78
44 47 50 51 64 70 75 80
41 48 53 57 71 73 74 80 132 135
71 75 147
46 49 55 56 61 75 80 150
5 12 28 52 55 61 66 71 75 78 156
45 52 67 68 70 75 114 142
59
3 34 43 51 67 120
51 53 62 67 77 78 79 114
42 50 51 53 63 65 66 68 69 70 71 90
27 50 59 79 133
32 55 74
44 62 65 70 74 80 84 108
56 74 76 132
44 46 49 56 57 59 66 67 69 78
88 90 97 98 99 104 110 119 147
98 99 107 111 160
88 97 102 105 106 108 112 113 116
10 78 96 98 99 106 107 111
86 91 100 101 106 110 114 145
85 88 93 94 107 109 118 135
2 59 94 98
29 43 81 83 86 98 105 108 109
97 110 111 118
75 81 93 97 103 106 113 119
25 85 93 109 141
23 101 103 107 117
38 86 90 91 96 97 100 109 114 118
86 87 102 106 110 114 144 149
103 104 116 120
47 84 93 98 101 106 112 113 125
81 83 89 90 93 98 104 109
81 82 84 87 88 96 97 99 103 105 112 114
81 82 84 98 101
58 85 93 102 103
21 62 85 92 96 99 107 114 116 120
31 83 94 100 104 108 109 111 114 117
90 92 95 98 100 106 108 110 113 116 117
39 81 95 97 102 105 106 107
83 88 98 104 106 109 113 119
27 83 84 85 90 94 96 103 104 105 110 114 115
82 84 86 92 101 104 111 112
7 78 83 88 102 103 114
29 86 88 91 93 97 102 105 113 116 131
15 81 85 89 94 103 106 115
82 84 89 102 107 120 146 151
83 96 98 107 113 119
45 83 90 96 103 105 109 112 114
55 71 74 85 93 94 98 101 102 106 108 113 120
106 110 119
1 47 83 95 101 103 109 118
92 102 103 119
1 86 89 93 116 147 154
53 81 90 105 112 115 117
73 95 101 111 114 156
26 123 127 151 154 158
47 123 124 125 144 150 158
21 121 122 135 154 160
23 122 127 134 135 137 150
96 122 127 144 148 160
127 129 131 133 146 147
121 124 125 126 128 129 132 148 150 153 155 159
127 129 133 137 140 141 157 159
126 127 128 148 157
145 147 154 156 158
109 126 139 142 153 155 156 160
67 79 127
13 48 76 126 128 134 143 158
44 124 133 137 144 148 150 158 159
42 67 86 123 124 143 146 147 150 153 157
138 145 148 153 156
30 124 128 134 139 141 144 152
22 136 144 148 154 158 159 160
50 131 137 141 147
3 128 148 153 160
91 128 137 139 150 152 155
71 131 144 149 152 156
37 133 135 147 152 159
94 122 125 134 137 138 142 146 159
12 85 130 136
111 126 135 144 151 153 156 159
1 19 68 81 118 126 130 135 139 143 154 159
27 125 127 129 134 136 138 140 158
58 94 142 157
3 69 122 124 127 134 135 141 153 156
38 111 121 146 157
137 141 142 143 156
36 127 131 135 136 140 146 150
9 41 118 121 123 130 138 147 157
127 131 141
9 11 70 120 130 131 136 142 146 150 152 157 158 159
52 128 129 135 149 151 154 156 159
18 121 122 130 133 134 138 148 156
127 128 134 138 143 144 146 147 156 157
22 42 82 123 125 131 138 140
