200 541
3 4 5 7 8 10 15 16 17 19 20 22 24 26 27 28 32 35 40 42 47 95 112 118 188 191
3 6 8 10 13 15 18 20 26 33 34 42 49 50 60 126 158
1 2 4 6 9 11 16 19 20 22 23 26 31 33 37 39 41 43 48 50 130 190
1 3 7 8 10 12 14 32 33 34 35 41 44 45 48 49 50 122 151 168
1 8 9 15 16 17 20 24 27 34 43 46 48 53
2 3 8 12 16 19 32 33 35 36 40 44
1 4 8 9 12 24 26 29 30 31 33 34 44 49 50 97 107 166
1 2 4 5 6 7 10 11 14 16 24 28 31 32 34 36 37 38 40 43 46 48 61 99 101 163
3 5 7 10 11 14 17 23 26 33 38 41 44 45 48 50 54 55 92 106 159 185
1 2 4 8 9 11 17 21 24 25 34 37 44
3 8 9 10 14 20 21 23 24 26 28 30 32 38 40 47 48 76 90 194 196
4 6 7 15 23 27 28 29 36 40 41
2 17 18 20 22 25 26 29 30 33 37 39 41 45 48 49 59 71 109 134
4 8 9 11 18 30 31 33 39 40 45 46 48 49 50 187
1 2 5 12 22 26 30 35 36 38 40 43 45 47 48 50 68 124 156
1 3 5 6 8 20 30 32 34 36 38 41 42 49 84 103 133 160
1 5 9 10 13 26 29 35 36 40 43 49 50 80 93 193
2 13 14 21 22 25 29 30 35 36 49 50 79
1 3 6 21 26 27 28 33 37 39 41 42 43 48 49 62 140 153 198
1 2 3 5 11 13 16 22 24 25 26 30 34 36 38 44 49 81 87 192
10 11 18 19 24 27 31 33 34 39 41 44 52 165 176
1 3 13 15 18 20 23 31 34 35 40 41 42 48 49
3 9 11 12 22 27 33 35 38 39 41 43 45 56
1 5 7 8 10 11 20 21 26 31 33 34 35 40 43 44 46 49 50 57 100 119 155
10 13 18 20 30 32 33 34 40 42 48 49 175
1 2 3 7 9 11 13 15 17 19 20 24 28 29 30 32 38 44 47 48 49 157 182
1 5 12 19 21 23 29 30 36 39 42 44 46 50 77 116 144
1 8 11 12 19 26 32 34 38 40 46 50 82 164
7 12 13 17 18 26 27 30 31 33 37 42 43 44 47 49 66 69 94 132 143
7 11 13 14 15 16 18 20 25 26 27 29 31 32 33 129 145 184
3 7 8 14 21 22 24 29 30 35 39 40 42 44 45 49 96 141 174
1 4 6 8 11 16 25 26 28 30 35 36 37 38 42 45 47 183 195
2 3 4 6 7 9 13 14 19 21 23 24 25 29 30 42 43 46 47 67
2 4 5 7 8 10 16 20 21 22 24 25 28 38 40 41 42 43 46 47 49 50 115 121 136 146
1 4 6 15 17 18 22 23 24 31 32 38 45 47 48 50 83 154 171
6 8 12 15 16 17 18 20 27 32 39 41 42 43 45 46 47 48
3 8 10 13 19 29 32 38 46 49 125
8 9 11 15 16 20 23 26 28 32 34 35 37 41 44 45 46 72 74 91 131
3 13 14 19 21 23 27 31 36 40 41 45 48 147
1 6 8 11 12 14 15 17 22 24 25 28 31 34 39 43 49 51 85 88 148 150 173
3 4 9 12 13 16 19 21 22 23 34 36 38 39 42 48 73 98 138 139 181
1 2 16 19 22 25 27 29 31 32 33 34 36 41 46 47 50 63 75 102 108 110 120 149 161
3 5 8 15 17 19 23 24 29 33 34 36 40 58 78
4 6 7 9 10 20 21 24 26 27 29 31 38 47 50 123
4 9 13 14 15 23 31 32 35 36 38 39 47 48 50 70 117
5 8 14 24 27 28 33 34 36 37 38 42 49 111 137
1 11 15 26 29 32 33 34 35 36 42 44 45 114 142 177 189 200
3 4 5 8 9 11 13 14 15 19 22 25 26 35 36 39 41 45 64 86
2 4 7 13 14 16 17 18 19 20 22 24 25 26 29 31 34 37 40 46 50 65 89 104 197
2 3 4 7 9 14 15 17 18 24 27 28 34 35 42 44 45 49
40
21
5 135 179
9
9 128
23
24
43
13
2
8
19 105
42
48 162
49 199
29
33
15
29
45
13
38
41
38
42
11
27
43 167
18
17 186
20
28 113
35
16 180
40
48
20
40
49
11
38
9
17
29 169
1
31
7
41
8
24
8
42
16
49
62
9
7
42
13
42
46
1 127
82
47
34
27
45
1
24
42
34
4 172
44
15
37
2
112
55
30
3
38
29
16
13 152
53
34
46
41
41 178
19 170
31
47
29
27
30
34
39
40
42
40
4
134
19
35
24
15
26
2
9
16
42
64
8
28
21
7
78
4
94
140
35
122
40
31
25
21
47
139
53
84
41
26
32
30
9
80
14
1
47
3
1
20
17
11
32
11
49
19
65
47
