0 2
0 3
0 4
0 6
0 7
0 9
0 14
0 15
0 16
0 18
0 19
0 21
0 23
0 25
0 26
0 27
0 31
0 34
0 39
0 41
0 46
0 94
0 111
0 117
0 187
0 190
1 2
1 5
1 7
1 9
1 12
1 14
1 17
1 19
1 25
1 32
1 33
1 41
1 48
1 49
1 59
1 125
1 157
2 3
2 5
2 8
2 10
2 15
2 18
2 19
2 21
2 22
2 25
2 30
2 32
2 36
2 38
2 40
2 42
2 47
2 49
2 129
2 189
3 6
3 7
3 9
3 11
3 13
3 31
3 32
3 33
3 34
3 40
3 43
3 44
3 47
3 48
3 49
3 121
3 150
3 167
4 7
4 8
4 14
4 15
4 16
4 19
4 23
4 26
4 33
4 42
4 45
4 47
4 52
5 7
5 11
5 15
5 18
5 31
5 32
5 34
5 35
5 39
5 43
6 7
6 8
6 11
6 23
6 25
6 28
6 29
6 30
6 32
6 33
6 43
6 48
6 49
6 96
6 106
6 165
7 9
7 10
7 13
7 15
7 23
7 27
7 30
7 31
7 33
7 35
7 36
7 37
7 39
7 42
7 45
7 47
7 60
7 98
7 100
7 162
8 9
8 10
8 13
8 16
8 22
8 25
8 32
8 37
8 40
8 43
8 44
8 47
8 49
8 53
8 54
8 91
8 105
8 158
8 184
9 10
9 16
9 20
9 23
9 24
9 33
9 36
9 43
10 13
10 19
10 20
10 22
10 23
10 25
10 27
10 29
10 31
10 37
10 39
10 46
10 47
10 75
10 89
10 193
10 195
11 14
11 22
11 26
11 27
11 28
11 35
11 39
11 40
12 16
12 17
12 19
12 21
12 24
12 25
12 28
12 29
12 32
12 36
12 38
12 40
12 44
12 47
12 48
12 58
12 70
12 108
12 133
13 17
13 29
13 30
13 32
13 38
13 39
13 44
13 45
13 47
13 48
13 49
13 186
14 21
14 25
14 29
14 34
14 35
14 37
14 39
14 42
14 44
14 46
14 47
14 49
14 67
14 123
14 155
15 19
15 29
15 31
15 33
15 35
15 37
15 40
15 41
15 48
15 83
15 102
15 132
15 159
16 25
16 28
16 34
16 35
16 39
16 42
16 48
16 49
16 79
16 92
16 192
17 20
17 21
17 24
17 28
17 29
17 34
17 35
17 48
17 49
17 78
18 20
18 25
18 26
18 27
18 32
18 36
18 38
18 40
18 41
18 42
18 47
18 48
18 61
18 139
18 152
18 197
19 21
19 23
19 24
19 25
19 29
19 33
19 35
19 37
19 43
19 48
19 80
19 86
19 191
20 23
20 26
20 30
20 32
20 33
20 38
20 40
20 43
20 51
20 164
20 175
21 22
21 30
21 33
21 34
21 39
21 40
21 41
21 47
21 48
22 26
22 32
22 34
22 37
22 38
22 40
22 42
22 44
22 55
23 25
23 30
23 32
23 33
23 34
23 39
23 42
23 43
23 45
23 48
23 49
23 56
23 99
23 118
23 154
24 29
24 31
24 32
24 33
24 39
24 41
24 47
24 48
24 174
25 27
25 28
25 29
25 31
25 37
25 43
25 46
25 47
25 48
25 156
25 181
26 28
26 29
26 35
26 38
26 41
26 43
26 45
26 49
26 76
26 115
26 143
27 31
27 33
27 37
27 39
27 45
27 49
27 81
27 163
28 29
28 30
28 32
28 36
28 41
28 42
28 43
28 46
28 48
28 65
28 68
28 93
28 131
28 142
29 30
29 31
29 32
29 128
29 144
29 183
30 34
30 38
30 39
30 41
30 43
30 44
30 48
30 95
30 140
30 173
31 34
31 35
31 36
31 37
31 41
31 44
31 46
31 182
31 194
32 41
32 42
32 45
32 46
32 66
33 37
33 39
33 40
33 41
33 42
33 45
33 46
33 48
33 49
33 114
33 120
33 135
33 145
34 37
34 44
34 46
34 47
34 49
34 82
34 153
34 170
35 38
35 40
35 41
35 42
35 44
35 45
35 46
35 47
36 37
36 45
36 48
36 124
37 40
37 43
37 44
37 45
37 71
37 73
37 90
37 130
38 39
38 40
38 44
38 47
38 146
39 42
39 48
39 50
39 84
39 87
39 147
39 149
39 172
40 41
40 47
40 72
40 97
40 137
40 138
40 180
41 45
41 46
41 49
41 62
41 74
41 101
41 107
41 109
41 119
41 148
41 160
42 57
42 77
43 46
43 49
43 122
44 46
44 47
44 49
44 69
44 116
45 48
45 110
45 136
46 113
46 141
46 176
46 188
46 199
47 63
47 85
48 49
48 64
48 88
48 103
48 196
52 134
52 178
54 127
61 104
63 161
64 198
77 166
79 185
81 112
83 179
93 168
111 126
121 171
133 151
138 177
139 169
