0 1
0 3
0 12
0 28
1 2
1 10
1 12
1 15
1 16
1 17
1 19
1 53
1 105
1 140
1 150
2 10
3 4
3 11
3 19
3 69
3 78
3 151
3 162
3 172
4 6
4 8
4 14
4 18
5 9
5 13
5 15
5 18
5 110
6 17
7 10
7 11
7 12
7 13
7 14
7 16
7 18
7 173
8 10
8 11
8 13
8 20
8 21
8 62
9 13
9 18
9 19
9 20
11 14
11 18
12 20
12 148
12 149
13 60
13 71
15 17
15 18
15 65
15 170
17 58
18 21
19 21
19 42
19 148
19 154
20 88
20 160
21 54
21 79
22 26
22 29
22 34
22 36
22 37
22 41
22 43
22 74
22 115
23 28
23 37
23 43
23 116
23 120
23 159
24 27
24 29
24 32
24 35
24 36
24 41
24 48
24 55
24 141
25 36
25 40
25 100
25 145
25 162
26 29
26 30
26 31
26 120
27 34
27 36
27 38
27 39
27 41
27 149
28 35
28 39
28 43
28 44
28 46
28 47
28 48
29 30
29 32
29 35
29 36
29 41
29 45
29 102
30 35
30 42
30 130
31 32
31 36
31 47
32 33
32 39
32 40
32 41
32 46
32 47
33 36
33 37
33 46
33 47
33 164
34 39
34 41
34 48
34 69
35 39
35 40
36 94
36 137
37 43
37 46
37 98
37 167
38 44
38 45
38 47
39 45
39 47
39 48
39 169
40 41
40 44
40 46
40 48
40 51
40 126
41 48
41 68
42 45
42 46
42 47
42 48
43 48
44 55
44 77
46 48
46 116
46 170
47 48
47 161
48 176
49 53
49 60
49 66
49 67
49 71
49 72
50 52
50 61
50 62
50 64
50 71
50 80
50 82
51 56
51 57
51 58
51 62
51 64
51 67
51 69
52 53
52 71
52 75
52 78
52 166
53 62
53 67
53 68
53 70
53 74
54 58
54 73
54 80
55 61
55 65
55 74
55 80
55 87
56 61
56 67
56 68
56 72
56 76
56 78
56 79
56 129
56 149
57 63
57 67
57 69
57 73
57 74
57 77
57 81
58 66
58 70
58 71
58 74
58 76
58 80
58 91
58 152
58 153
59 64
59 66
59 73
59 76
59 142
60 63
60 67
60 68
60 72
60 73
60 77
60 78
60 80
60 82
61 62
61 65
61 73
61 76
62 70
63 72
63 76
63 79
64 66
64 72
64 78
64 80
64 81
64 82
65 71
65 72
65 73
65 78
65 152
66 67
66 71
66 73
66 79
66 82
66 158
67 74
67 76
67 82
68 69
68 80
68 81
68 135
69 72
69 73
69 75
69 76
69 79
69 80
69 166
70 71
70 162
71 78
71 164
72 74
72 76
73 75
73 77
74 90
74 177
75 81
75 152
76 79
76 89
76 115
76 128
78 79
78 103
78 153
79 107
79 162
83 85
83 91
83 94
83 97
83 99
83 104
83 110
83 114
83 115
83 116
83 118
83 120
84 94
84 103
84 113
84 116
84 119
84 122
84 135
85 86
85 89
85 90
85 93
85 102
85 108
85 110
85 125
85 154
86 89
86 91
86 93
86 94
86 106
86 110
86 114
86 115
86 117
86 119
86 125
87 88
87 95
87 101
87 118
87 119
87 121
87 122
87 123
87 125
87 143
88 95
88 99
88 101
88 103
88 110
88 113
88 118
88 123
89 91
89 92
89 99
89 117
89 119
89 121
89 124
90 104
90 108
90 113
90 121
90 125
91 93
91 98
91 100
91 104
91 108
91 117
91 120
91 122
91 127
91 136
92 93
92 95
92 103
92 104
92 105
92 112
92 114
92 115
92 123
92 157
93 96
93 98
93 99
93 107
93 108
93 118
93 153
94 95
94 96
94 98
94 104
94 110
94 114
94 116
94 118
95 101
95 116
95 123
95 134
96 109
96 111
96 122
97 118
97 123
98 99
98 101
98 106
98 109
98 113
98 114
98 119
98 147
98 166
99 102
99 103
99 107
99 114
99 117
99 119
99 121
99 178
100 108
100 115
100 116
100 121
100 125
101 107
101 108
101 109
101 119
101 128
102 105
102 109
102 111
102 112
102 113
102 114
102 115
102 116
102 121
102 124
103 105
103 106
103 111
103 114
103 115
103 122
103 133
104 112
104 120
104 123
104 125
104 127
105 111
105 117
105 122
105 156
106 111
106 118
106 125
107 111
107 114
107 115
107 120
107 125
108 114
108 116
109 116
109 119
109 124
110 116
110 125
111 112
111 120
111 122
111 124
111 125
112 113
112 125
113 120
113 125
114 120
115 116
115 117
115 122
116 118
116 121
116 124
116 125
117 120
118 120
118 176
119 122
119 125
120 121
120 124
120 173
121 125
124 160
124 177
126 128
126 129
126 132
126 140
126 153
126 154
126 179
127 135
127 143
127 145
127 147
127 154
127 163
127 165
127 173
128 133
128 137
128 138
128 140
128 145
128 146
128 148
128 150
128 152
128 153
128 156
128 173
128 175
129 130
129 137
129 148
129 152
129 155
129 158
129 159
129 164
129 167
129 169
129 171
129 172
129 176
129 179
130 131
130 134
130 143
130 157
130 162
130 164
130 166
130 168
130 171
130 175
130 176
131 136
131 143
131 145
131 149
131 150
131 157
131 158
131 162
131 164
131 173
131 178
131 179
132 135
132 147
132 149
132 152
132 156
132 160
132 164
132 166
132 176
133 140
133 145
133 149
133 152
133 156
133 167
133 170
133 171
133 174
133 177
134 141
134 142
134 144
134 148
134 150
134 151
134 153
134 159
134 161
134 172
135 137
135 144
135 156
135 160
135 166
135 171
136 149
136 159
136 160
136 164
136 166
137 141
137 151
137 162
137 164
137 165
137 166
137 179
138 144
138 146
138 152
138 155
138 157
138 159
138 161
138 169
138 178
139 153
139 154
139 156
139 164
139 169
139 171
139 173
140 145
140 148
140 160
140 175
141 142
141 146
141 149
141 152
141 156
141 157
141 158
141 160
141 161
141 164
141 179
142 144
142 148
142 150
142 158
142 160
142 163
142 164
142 167
142 175
143 145
143 151
143 154
143 155
143 157
143 162
143 163
143 164
143 167
143 168
143 176
144 146
144 154
144 158
144 164
144 175
144 177
145 148
145 154
145 159
145 161
145 162
145 167
145 171
145 172
145 176
145 179
146 147
146 148
146 155
146 161
146 162
146 163
146 168
146 171
146 173
146 178
147 169
147 171
147 173
147 174
147 176
147 178
148 151
148 155
148 159
148 160
148 161
148 163
148 171
148 172
148 173
148 177
149 152
149 155
149 157
149 158
149 159
149 169
149 171
150 151
150 162
150 163
150 172
150 175
150 176
151 159
151 161
151 164
151 169
151 176
151 177
151 178
152 161
152 165
152 169
152 170
152 171
152 172
153 155
153 157
153 158
153 159
153 175
153 177
154 156
154 163
154 172
154 173
154 177
154 178
155 163
155 167
155 173
155 176
155 179
156 157
156 159
156 167
156 169
156 172
156 175
157 161
157 164
157 168
157 170
157 171
158 162
158 165
158 167
158 172
159 164
159 165
159 167
159 169
159 177
160 168
160 169
160 171
160 176
160 179
161 168
161 175
161 178
162 164
162 167
162 174
162 177
162 178
163 167
163 173
163 176
164 167
164 172
164 173
164 174
164 177
165 172
165 176
165 178
166 170
166 175
167 170
167 173
167 174
167 179
168 174
168 177
168 179
169 172
171 172
171 173
171 175
171 179
172 175
172 177
172 178
173 174
173 179
176 177
176 178
178 179
