180 843
2 4 13 29
1 3 11 13 16 17 18 20 54 106 141 151
2 11
1 5 12 20 70 79 152 163 173
4 7 9 15 19
10 14 16 19 111
5 18
11 12 13 14 15 17 19 174
5 11 12 14 21 22 63
6 14 19 20 21
2 3 8 9
4 8 9 15 19
1 2 8 21 149 150
6 8 9 10 61 72
5 8 12
2 6 18 19 66 171
2 8
2 7 16 59
5 6 8 10 12 16 22
2 4 10 22 43 149 155
9 10 13 89 161
9 19 20 55 80
27 30 35 37 38 42 44 75 116
29 38 44 117 121 160
28 30 33 36 37 42 49 56 142
37 41 101 146 163
23 30 31 32 121
25 35 37 39 40 42 150
1 24 36 40 44 45 47 48 49
23 25 27 31 33 36 37 42 46 103
27 30 36 43 131
27 33 37 48
25 30 32 34 40 41 42 47 48
33 37 38 47 48 165
23 28 40 42 49 70
25 29 30 31 40 41
23 25 26 28 30 32 34 95 138
23 24 34 44 47 99 168
28 45 46 48
28 29 33 35 36 46 48 49 170
26 33 36 42 45 47 49 52 127
23 25 28 30 33 35 41 49 69
20 31 46 47 48 49
23 24 29 38 49
29 39 41 56 78
30 39 40 43
29 33 34 38 41 43 49 117 171
29 32 33 34 39 40 43 49 162
25 29 35 40 41 42 43 44 47 48 177
54 61 67 68 72 73
53 62 63 65 72 81 83
41 57 58 59 63 65 68 70
51 54 72 76 79 167
2 50 53 63 68 69 71 75
22 59 74 81
25 45 62 66 75 81 88
52 62 68 69 73 77 79 80 130 150
52 64 68 70 74 75 78 82
18 52 55 67 71 72 75 77 81 92 153 154
65 67 74 77 143
14 50 64 68 69 73 74 78 79 81 83
51 56 57 63 66 74 77
9 51 52 54 62 71
58 61 73 77 80
51 52 60 67 73 79 81 82 83
16 56 62 72 73 74 79 153
50 59 60 65 68 72 74 80 83 159
50 52 54 57 58 61 67 75 77 83
42 54 57 61 70 81 82 136
4 35 52 58 69 73 74 76 77 80 81 167
54 59 63 72 163
14 50 51 53 59 66 67 71 79 165
50 57 61 64 65 66 70 75 77
55 58 60 61 62 66 67 70 76 78
23 54 56 58 59 68 73 91 178
53 70 74 82 153
57 59 60 62 64 68 70 73 80 90 116 129
45 58 61 74
4 53 57 61 65 66 72 80 104 154
22 57 64 67 70 77 79 108 163
51 55 56 59 61 65 69 70
58 65 69 76
51 61 65 67 68
86 92 95 98 100 105 111 115 116 117 119 121
95 104 114 117 120 123 136
84 87 90 91 94 103 109 111 126 155
86 90 92 94 95 107 111 115 116 118 120 126
56 89 96 102 119 120 122 123 124 126 144
21 88 96 100 102 104 111 114 119 124
77 86 87 92 93 100 118 120 122 125
75 86 105 109 114 122 126
59 84 87 90 94 99 101 105 109 118 121 123 128 137
90 94 96 104 105 106 113 115 116 124 158
86 87 92 93 97 99 100 108 109 119 154
37 84 85 87 96 97 99 105 111 115 117 119
88 89 93 95 102 117 124 135
94 95 110 112 123
84 119 124
38 92 94 95 100 102 107 110 114 115 120 148 167
84 89 90 94 99 103 104 108 115 118 120 122 179
26 92 109 116 117 122 126
88 89 96 99 108 109 110 120 129
30 86 100 106 110 112 113 114 115 116 117 122 125
79 85 89 93 100 106 107 112 115 116 123 134
84 91 92 93 95 113 121 124 126 128
2 93 103 104 112 118 123 157
87 99 104 112 119 126
80 94 100 102 112 115 116 121 126
86 91 92 94 101 102 115 117
97 99 102 103 117 120 125
6 84 86 87 89 95 117 126
97 103 104 106 107 108 113 121 123 125 126
93 103 105 112 114 126
85 89 91 99 103 113 121 126
84 87 93 95 99 100 103 104 108 109 121
23 77 84 87 93 101 103 104 108 117 118 123
24 47 84 85 95 96 101 103 109 110 111 116 119 122 125 126
87 90 92 100 106 116 121
84 88 89 94 95 98 107 117 121 177
85 87 88 90 99 100 102 110 123 126
24 27 84 92 105 108 112 114 115 118 119 122 125 174
88 90 91 100 101 103 117 121 126
85 88 92 97 104 106 112 116 120
88 89 93 96 98 105
90 103 110 112 117 121 161 178
86 87 88 91 101 105 107 108 111 112 113 114 117 120 122
41 129 130 133 141 154 155 180
92 105 136 144 146 148 155 164 166 174
77 102 127 134 138 139 141 146 147 149 151 153 154 157 174 176
57 127 131 138 149 153 156 159 160 165 168 170 172 173 177 180
31 130 132 135 144 158 163 165 167 169 172 176 177
131 137 144 146 150 151 158 159 163 165 174 179 180
127 136 148 150 153 157 161 165 167 177
104 129 141 146 150 153 157 168 171 172 175 178
96 131 142 143 145 149 151 152 154 160 162 173
69 85 128 133 138 145 157 161 167 172
92 132 150 160 161 165 167
37 129 130 136 142 152 163 165 166 167 180
129 145 147 153 156 158 160 162 170 179
154 155 157 165 170 172 174
2 127 129 134 146 149 161 176
25 135 138 143 147 150 153 157 158 159 161 162 165 180
60 135 142 145 149 151 159 161 164 165 168 176
88 128 131 132 146 152 155 156 158 163 164 165 168 169 177
135 136 139 143 147 155 159 165 176 178
26 128 129 132 134 141 144 149 155 160 162 163 168 172 173 177 180
129 139 142 145 148 149 156 162 163 164 169 172 174 179
99 128 133 147 170 172 174 175 177 179
13 20 129 130 135 141 143 146 147 152 156 160 161 162 164 172 173 174 178
13 28 57 132 133 134 137 142 153 156 158 159 160 170 172
2 129 132 135 143 152 163 164 173 176 177
4 135 138 144 149 151 160 162 165 170 177 178 179
59 66 76 129 130 133 134 139 142 150 162 166 170 171 172 173
59 79 94 127 129 135 140 156 158 159 160 176 178
20 86 127 128 140 144 145 146 157 164 173 174 178 179
130 139 144 147 149 150 154 164 168 174 177 180
106 129 133 134 136 140 142 155 158 160 168 170 173 176
93 131 132 139 142 144 150 154 157 162 165 169 171 172
67 130 132 142 143 145 150 154 163 166 168 173
24 130 135 137 139 146 149 150 152 154 157 165 166 168 170 178
21 125 133 136 137 141 142 143 149 169 170 172 177 180
48 135 139 142 146 147 149 152 153 158 169 176 179
4 26 71 80 131 132 138 144 146 147 151 159 165 168 175 178 179
128 143 144 147 149 151 155 156 168 174 177
34 72 130 131 132 133 137 138 140 142 143 144 145 152 158 160 163 168 173 174 175 178
128 138 153 159 160 173 177 179
53 70 99 131 133 136 137 138 171 176
38 130 134 143 144 146 156 157 159 160 163 164 165 171 174 175 180
131 144 147 158 161 162 175 178 180
40 130 139 140 148 150 152 153 157 160 161 173
16 47 134 153 158 167 168
130 131 134 136 140 146 147 148 149 150 153 158 161 173 174 176 180
4 130 135 146 149 151 153 155 157 159 165 166 170 172 176 178 179
8 121 128 129 132 140 147 148 149 155 156 164 165 168 172 175 180
134 148 163 165 168 169 174
129 131 141 143 145 151 154 157 162 167 172 173
49 119 130 131 133 144 146 148 151 152 156 161 164 166 178 179
75 125 134 145 149 152 154 155 160 163 165 169 173 177
100 132 139 147 148 152 155 162 163 166 173 177 180
127 130 132 138 142 146 156 161 168 169 172 174 179
