0 3
0 7
0 10
0 11
0 14
0 20
0 23
0 25
0 27
0 31
0 32
0 36
0 39
0 41
0 169
0 183
1 5
1 9
1 13
1 15
1 16
1 20
1 23
1 28
1 29
1 35
1 38
1 42
1 44
1 80
1 173
1 186
2 3
2 4
2 6
2 8
2 9
2 16
2 17
2 25
2 26
2 33
2 34
2 37
2 38
2 44
2 46
2 71
2 122
2 150
2 164
3 4
3 8
3 12
3 15
3 17
3 19
3 20
3 27
3 38
3 46
3 48
3 137
4 8
4 13
4 15
4 19
4 21
4 26
4 32
4 38
4 39
4 44
4 45
4 46
4 49
4 68
4 97
4 108
5 9
5 11
5 20
5 24
5 28
5 30
5 31
5 33
5 36
5 39
5 45
5 125
6 7
6 8
6 10
6 13
6 14
6 15
6 16
6 19
6 22
6 26
6 32
6 34
6 37
6 63
6 98
6 114
6 133
6 191
7 9
7 16
7 20
7 22
7 29
7 30
7 36
7 40
7 42
7 153
7 189
8 10
8 11
8 24
8 25
8 28
8 30
8 31
8 36
8 38
8 41
8 48
8 59
8 73
8 81
8 100
8 111
8 158
9 10
9 12
9 22
9 23
9 27
9 29
9 31
9 35
9 36
9 37
9 39
9 40
9 48
9 52
9 85
9 143
9 148
9 188
10 11
10 12
10 21
10 24
10 28
10 30
10 31
10 39
10 42
10 43
10 44
10 193
11 18
11 19
11 21
11 23
11 24
11 25
11 26
11 29
11 37
11 46
11 48
11 104
11 120
11 174
12 13
12 17
12 20
12 22
12 27
12 28
12 29
12 37
12 38
12 41
12 43
12 45
12 49
12 131
12 141
12 194
13 15
13 18
13 21
13 23
13 25
13 30
13 31
13 32
13 37
13 38
13 40
13 41
13 77
14 15
14 19
14 21
14 26
14 30
14 40
14 48
14 92
14 166
15 18
15 22
15 23
15 26
15 29
15 31
15 32
15 35
15 39
15 40
15 41
15 44
15 45
15 47
15 49
16 17
16 19
16 20
16 23
16 28
16 37
16 38
16 42
16 43
16 46
16 197
17 29
17 30
17 38
17 39
17 45
17 47
17 74
18 19
18 24
18 37
18 39
18 40
18 42
18 43
18 47
18 118
18 134
18 145
19 21
19 25
19 27
19 28
19 29
19 33
19 37
19 38
19 40
19 41
19 47
19 62
19 72
19 89
19 130
19 139
20 22
20 23
20 24
20 28
20 31
20 33
20 35
20 37
20 38
20 39
20 40
20 45
20 79
20 160
20 170
21 24
21 36
21 42
21 45
21 58
21 75
21 88
21 93
21 105
22 23
22 24
22 34
22 45
22 47
22 146
22 159
23 25
23 26
23 36
23 43
23 46
23 66
23 175
24 27
24 29
24 32
24 40
24 42
24 49
24 167
24 195
25 26
25 30
25 33
25 34
25 42
25 43
25 47
25 117
26 29
26 30
26 37
26 40
26 41
26 43
26 44
26 48
26 49
26 95
26 106
26 110
26 129
26 199
27 31
27 37
27 38
27 39
27 46
27 49
27 151
28 31
28 33
28 35
28 37
28 40
28 41
28 42
28 45
28 47
28 56
28 82
28 115
29 33
29 40
29 42
29 45
29 48
29 49
29 54
29 96
30 31
30 32
30 34
30 38
30 40
30 45
30 46
30 47
30 70
31 34
31 36
31 47
31 49
31 84
31 87
31 91
31 181
31 190
32 33
32 42
32 43
32 48
32 69
32 124
32 147
33 35
33 36
33 38
33 44
33 47
33 48
33 60
33 102
33 135
33 179
34 40
34 45
34 46
34 86
34 109
34 113
35 36
35 37
35 40
35 41
35 42
35 45
35 46
35 53
35 116
35 165
36 37
36 40
36 46
36 99
36 101
37 40
37 46
37 48
37 142
38 40
38 43
38 44
38 47
38 48
38 49
38 57
38 103
38 126
38 128
38 156
39 40
39 41
39 61
39 140
40 42
40 47
40 50
40 65
40 76
40 123
40 144
41 43
42 45
42 55
42 112
42 119
43 44
43 47
43 64
43 78
44 46
44 94
45 47
45 49
45 154
45 198
46 48
46 90
47 48
47 49
47 127
47 196
48 49
48 51
48 121
48 132
48 157
48 185
48 187
57 136
58 83
59 67
60 155
62 138
62 172
63 107
69 184
70 182
77 162
78 192
89 149
94 180
97 163
103 161
103 178
105 177
108 176
124 152
138 168
144 171
