200 505
4 8 11 12 15 21 24 26 28 32 33 37 40 42 170 184
6 10 14 16 17 21 24 29 30 36 39 43 45 81 174 187
4 5 7 9 10 17 18 26 27 34 35 38 39 45 47 72 123 151 165
1 3 5 9 13 16 18 20 21 28 39 47 49 138
3 4 9 14 16 20 22 27 33 39 40 45 46 47 50 69 98 109
2 10 12 21 25 29 31 32 34 37 40 46 126
3 8 9 11 14 15 16 17 20 23 27 33 35 38 64 99 115 134 192
1 7 10 17 21 23 30 31 37 41 43 154 190
3 4 5 7 11 12 25 26 29 31 32 37 39 42 49 60 74 82 101 112 159
2 3 6 8 11 13 23 24 28 30 32 36 37 38 40 41 49 53 86 144 149 189
1 7 9 10 12 13 22 25 29 31 32 40 43 44 45 194
1 6 9 11 19 20 22 24 25 26 27 30 38 47 49 105 121 175
4 10 11 14 18 21 23 28 29 30 38 39 42 44 46 50 132 142 195
2 5 7 13 16 19 22 24 26 31 32 33 38 39 41 42 78
1 7 16 20 22 27 31 41 49 93 167
2 4 5 7 14 15 19 23 24 27 30 32 33 36 40 41 42 45 46 48 50
2 3 7 8 18 20 21 24 29 38 39 43 44 47 198
3 4 13 17 30 31 39 40 46 48 75
12 14 16 20 25 38 40 41 43 44 48 119 135 146
4 5 7 12 15 17 19 22 26 28 29 30 34 38 39 41 42 48 63 73 90 131 140
1 2 4 6 8 13 17 23 24 25 29 32 34 36 38 39 40 41 46 80 161 171
5 11 12 14 15 20 25 37 43 46 59 76 89 94 106
7 8 10 13 16 21 24 25 35 46 48 147 160
1 2 10 12 14 16 17 21 23 26 27 37 44 47 67 176
6 9 11 12 19 21 22 23 28 30 33 41 43 50 168 196
1 3 9 12 14 20 24 27 31 34 35 43 44 48 118
3 5 7 12 15 16 24 26 30 31 38 41 42 44 45 49 50 96 107 111 130 200
1 4 10 13 20 25 32 38 39 40 47 50 152
2 6 9 11 13 17 20 21 32 34 36 38 41 42 43 46 48 57 83 116
2 8 10 12 13 16 18 20 25 27 34 41 43 46 49 50 55 97
6 8 9 11 14 15 18 26 27 32 33 35 39 41 46 47 48 71
1 6 9 10 11 14 16 21 28 29 31 35 37 48 50 85 88 92 182 191
1 5 7 14 16 25 31 34 43 44 49 70 125 148
3 6 20 21 26 29 30 33 36 37 39 45 48 49 61 103 136 180
3 7 23 26 31 32 41 46 47 87 110 114
2 10 16 21 29 34 37 38 41 42 43 46 47 54 117 166
1 6 8 9 10 22 24 32 34 36 38 41 47 100 102
3 7 10 12 13 14 17 19 20 21 27 28 29 36 37 41 47 49 143
2 3 4 5 9 13 14 17 18 20 21 28 31 34 41 44 45 48 49 50 58 104 127 129 157
1 5 6 10 11 16 18 19 21 28 41 42 62 141
8 10 14 15 16 19 20 21 25 27 29 30 31 35 36 37 38 39 40 43 48 51 66 77 124 145
1 9 13 14 16 20 27 29 36 40 44
2 8 11 17 19 22 25 26 29 30 33 36 41 46 56 113 120
11 13 17 19 24 26 27 33 39 42 45 48 65 79
2 3 5 11 16 27 34 39 44 47 95
5 6 13 16 18 21 22 23 29 30 31 35 36 43 48 50 155 199
3 4 5 12 17 24 28 31 35 36 37 38 45 49 91
16 18 19 20 23 26 29 31 32 34 39 41 44 46 49 50 128 197
4 9 10 12 15 27 30 33 34 38 39 47 48 50 52 122 133 158 186 188
5 13 16 25 27 28 30 32 39 46 48 49
41
49
10
36
30
43
29
39 137
22 84
9 68
34 156
40
20 139 173
7 108
44
41
24
60
5
33 185
31 183
3
20
9
18
22
41
14 163
44 193
21
2
9
29
59
32
10
35
32
22
20 150
47
32
15
22
45 181
27
30
5 164
7
37
9
37
34
39 162 179
12
22 178
27
64
5 177
35
27
9
43
35
7
29
36
26
19
43
12
49
3
41
33 153
6
39
48
39
27
20
13
49
7
19
34
58
4
63 169
20
40
13
38
10
41 172
19
23
33
10
90
3
28
125
8
46
61
39
49
9
23
21
104
78
98
3
36
15
25
139
1
21
145
63
2
12
24
109
106
104
34
95
32
71
1
70
49
2
49
10
8
32
7
79
11
13
25
48
17
46
27
