0 5
0 6
0 10
0 11
0 12
0 13
0 16
0 21
0 24
0 25
0 30
0 32
0 34
0 40
0 47
0 51
0 53
0 62
0 72
0 74
0 160
1 3
1 7
1 9
1 10
1 11
1 15
1 21
1 23
1 24
1 26
1 27
1 35
1 38
1 43
1 53
1 55
1 60
1 61
1 68
1 72
1 76
1 172
2 7
2 11
2 12
2 17
2 21
2 25
2 26
2 27
2 31
2 34
2 36
2 48
2 51
2 62
2 65
2 73
3 9
3 10
3 15
3 16
3 24
3 25
3 35
3 46
3 48
3 62
3 69
3 71
3 72
3 74
3 79
4 7
4 8
4 11
4 14
4 15
4 18
4 22
4 24
4 33
4 36
4 40
4 41
4 44
4 45
4 47
4 49
4 51
4 52
4 53
4 62
4 65
4 66
4 74
4 78
5 6
5 7
5 8
5 11
5 24
5 27
5 30
5 31
5 32
5 34
5 35
5 36
5 39
5 40
5 43
5 46
5 47
5 51
5 53
5 55
5 57
5 59
5 61
5 64
5 66
5 67
5 69
5 79
6 7
6 11
6 12
6 22
6 25
6 26
6 31
6 32
6 34
6 40
6 43
6 49
6 54
6 55
6 60
6 61
6 63
6 64
6 67
6 68
6 70
6 79
7 8
7 9
7 12
7 14
7 19
7 21
7 26
7 27
7 31
7 34
7 35
7 38
7 41
7 44
7 45
7 46
7 51
7 54
7 55
7 59
7 61
7 67
7 70
7 76
8 11
8 17
8 19
8 25
8 31
8 34
8 40
8 42
8 44
8 48
8 52
8 56
8 58
8 60
8 61
8 70
8 71
8 72
8 73
8 74
8 77
8 79
9 10
9 11
9 24
9 27
9 28
9 30
9 32
9 35
9 41
9 48
9 49
9 51
9 56
9 57
9 60
9 64
9 70
9 71
9 72
9 74
9 76
10 13
10 14
10 16
10 24
10 27
10 32
10 35
10 38
10 40
10 43
10 44
10 45
10 46
10 48
10 51
10 53
10 61
10 69
10 71
10 73
10 74
10 76
10 78
10 79
11 16
11 17
11 18
11 19
11 20
11 24
11 27
11 28
11 30
11 33
11 36
11 38
11 43
11 48
11 49
11 55
11 57
11 58
11 59
11 60
11 61
11 62
11 65
11 67
11 68
11 69
11 76
11 77
12 14
12 15
12 17
12 25
12 35
12 36
12 38
12 44
12 45
12 48
12 55
12 60
12 62
12 66
12 67
12 69
12 71
12 74
12 77
12 79
13 14
13 15
13 17
13 23
13 24
13 32
13 35
13 38
13 39
13 41
13 49
13 50
13 51
13 52
13 55
13 56
13 57
13 61
13 62
13 64
13 68
13 70
13 76
13 78
13 79
14 22
14 23
14 27
14 28
14 31
14 33
14 35
14 43
14 45
14 46
14 48
14 55
14 56
14 58
14 63
14 67
14 68
14 70
14 74
14 75
15 21
15 22
15 23
15 30
15 31
15 33
15 34
15 37
15 39
15 41
15 42
15 43
15 46
15 51
15 56
15 57
15 65
15 74
15 75
16 17
16 18
16 22
16 27
16 30
16 37
16 40
16 42
16 47
16 49
16 50
16 52
16 59
16 70
16 71
17 21
17 24
17 25
17 27
17 30
17 32
17 39
17 41
17 43
17 44
17 46
17 49
17 60
17 63
17 64
17 66
17 71
17 72
17 73
17 74
17 76
17 77
18 20
18 21
18 22
18 26
18 36
18 38
18 42
18 43
18 44
18 46
18 47
18 51
18 54
18 58
18 60
18 69
18 71
18 74
19 32
19 36
19 37
19 42
19 43
19 45
19 51
19 54
19 57
19 58
19 60
19 65
19 71
19 72
19 74
19 78
20 23
20 24
20 25
20 28
20 30
20 39
20 42
20 43
20 44
20 45
20 46
20 53
20 57
20 62
20 64
20 71
20 74
20 76
20 78
20 79
21 28
21 31
21 33
21 37
21 43
21 44
21 45
21 47
21 51
21 54
21 55
21 64
21 66
21 69
21 71
21 73
21 74
21 75
22 24
22 26
22 29
22 31
22 32
22 35
22 38
22 39
22 41
22 45
22 54
22 56
22 58
22 60
22 62
22 64
22 65
22 66
22 72
22 73
22 75
22 77
22 79
23 29
23 33
23 36
23 37
23 38
23 40
23 42
23 54
23 58
23 62
23 63
23 66
23 68
23 74
23 79
24 26
24 29
24 30
24 36
24 37
24 40
24 41
24 42
24 44
24 47
24 49
24 50
24 51
24 52
24 54
24 56
24 57
24 71
24 78
25 26
25 33
25 35
25 36
25 38
25 44
25 47
25 48
25 49
25 53
25 58
25 59
25 61
25 66
25 69
25 70
25 75
25 79
26 33
26 35
26 39
26 42
26 43
26 47
26 53
26 56
26 60
26 62
26 66
26 76
27 40
27 42
27 43
27 45
27 47
27 51
27 53
27 59
27 63
27 65
27 67
27 68
27 69
27 70
27 74
27 75
28 30
28 38
28 40
28 46
28 50
28 51
28 52
28 58
28 61
28 64
28 72
28 78
29 30
29 32
29 35
29 38
29 44
29 47
29 49
29 50
29 51
29 54
29 59
29 64
29 65
29 68
29 72
29 74
30 32
30 34
30 36
30 38
30 43
30 50
30 51
30 52
30 54
30 58
30 62
30 63
30 64
30 67
30 68
30 69
30 70
30 73
30 74
31 42
31 45
31 50
31 55
31 57
31 59
31 60
31 62
31 67
31 68
31 74
31 76
32 35
32 37
32 39
32 41
32 43
32 51
32 52
32 57
32 58
32 61
32 64
32 66
32 67
32 73
32 78
33 45
33 53
33 58
33 69
33 71
33 74
33 77
33 78
34 37
34 42
34 43
34 47
34 53
34 61
34 66
34 68
34 69
34 76
34 79
35 36
35 39
35 40
35 45
35 60
35 65
35 66
35 67
35 69
35 72
35 74
35 76
36 39
36 48
36 52
36 56
36 58
36 60
36 61
36 69
36 73
36 74
37 38
37 40
37 41
37 42
37 43
37 46
37 49
37 52
37 56
37 57
37 58
37 60
37 66
37 68
37 69
37 75
37 77
38 40
38 41
38 42
38 46
38 51
38 53
38 54
38 55
38 59
38 60
38 61
38 63
38 66
38 68
38 70
38 73
38 76
39 41
39 42
39 51
39 53
39 55
39 67
39 68
39 72
39 73
39 74
39 75
39 79
40 41
40 45
40 46
40 51
40 53
40 56
40 57
40 59
40 63
40 71
40 72
40 78
41 43
41 44
41 45
41 46
41 48
41 49
41 50
41 53
41 54
41 55
41 57
41 63
41 64
41 66
41 74
41 77
41 79
42 43
42 47
42 49
42 56
42 61
42 62
42 70
42 71
42 74
42 76
42 78
43 49
43 50
43 52
43 55
43 60
43 62
43 63
43 64
43 71
43 73
43 75
43 76
44 45
44 46
44 49
44 53
44 54
44 56
44 59
44 61
44 62
44 64
44 66
44 67
44 71
44 74
44 75
45 47
45 52
45 61
45 62
45 68
45 69
45 70
45 73
45 75
45 78
45 79
46 48
46 52
46 56
46 61
46 66
46 68
46 71
46 74
46 77
47 50
47 54
47 55
47 56
47 58
47 61
47 62
47 65
47 67
47 73
48 50
48 51
48 53
48 55
48 58
48 59
48 63
48 64
48 73
48 79
49 52
49 66
49 67
49 69
49 70
49 71
49 72
49 73
50 53
50 60
50 68
50 70
50 71
50 79
51 52
51 57
51 62
51 66
51 70
52 54
52 55
52 58
52 67
52 68
52 69
52 71
52 73
52 74
52 78
53 63
53 64
53 67
53 69
53 73
53 74
54 58
54 63
54 69
54 70
54 71
54 73
54 74
55 56
55 57
55 60
55 62
55 63
55 65
55 67
55 75
56 66
56 69
56 72
56 76
56 77
57 62
57 65
57 67
57 68
57 71
57 75
57 77
58 59
58 61
58 63
58 66
58 70
58 72
58 75
58 77
58 78
59 60
59 64
59 67
59 68
59 71
59 72
59 77
59 78
60 61
60 63
60 65
60 66
60 70
60 71
60 78
61 62
61 64
61 65
61 67
61 72
61 75
62 64
62 66
62 70
62 71
62 73
62 77
62 78
63 64
63 65
63 68
63 75
64 67
64 69
64 72
64 73
64 77
65 72
65 77
65 79
66 71
66 72
66 75
67 73
67 75
68 77
69 70
69 74
69 75
70 71
70 74
70 79
71 76
72 76
72 77
74 76
74 77
74 78
75 78
76 79
77 78
77 79
80 82
80 84
80 92
80 95
80 111
80 114
80 116
80 117
80 118
80 119
80 124
80 127
80 131
80 132
80 135
80 136
80 138
80 144
80 147
80 148
80 149
80 150
80 159
80 171
81 82
81 85
81 88
81 91
81 95
81 101
81 107
81 109
81 112
81 117
81 119
81 120
81 125
81 132
81 135
81 138
81 139
81 144
81 145
81 146
81 149
81 183
82 87
82 88
82 89
82 94
82 97
82 111
82 112
82 114
82 117
82 118
82 119
82 121
82 126
82 128
82 129
82 132
82 139
82 140
82 147
82 148
82 152
82 155
82 158
83 90
83 91
83 93
83 94
83 97
83 99
83 100
83 104
83 108
83 111
83 112
83 115
83 116
83 118
83 119
83 120
83 125
83 126
83 128
83 138
83 139
83 145
83 152
83 154
84 85
84 87
84 90
84 93
84 99
84 114
84 117
84 118
84 119
84 126
84 127
84 131
84 137
84 139
84 144
84 146
84 147
84 148
84 149
84 150
84 151
84 154
84 156
85 95
85 98
85 99
85 100
85 101
85 104
85 106
85 107
85 108
85 110
85 111
85 122
85 125
85 128
85 131
85 133
85 134
85 135
85 138
85 141
85 144
85 145
85 150
85 155
85 157
85 158
86 91
86 96
86 97
86 101
86 102
86 103
86 107
86 110
86 117
86 125
86 128
86 135
86 138
86 139
86 151
86 155
86 157
86 158
87 90
87 91
87 100
87 101
87 104
87 105
87 106
87 107
87 110
87 112
87 116
87 125
87 135
87 138
87 139
87 140
87 144
87 146
87 151
87 152
87 153
87 158
88 91
88 93
88 94
88 101
88 102
88 109
88 116
88 117
88 120
88 122
88 123
88 125
88 132
88 133
88 134
88 140
88 142
88 146
88 149
88 156
89 91
89 95
89 98
89 99
89 107
89 110
89 120
89 129
89 131
89 135
89 138
89 143
89 145
89 154
89 155
90 98
90 101
90 109
90 117
90 118
90 124
90 125
90 128
90 130
90 135
90 139
90 143
90 144
90 150
90 152
90 157
91 94
91 95
91 98
91 99
91 101
91 103
91 113
91 115
91 118
91 119
91 121
91 123
91 124
91 128
91 130
91 133
91 134
91 135
91 136
91 143
91 145
91 152
91 153
91 156
92 101
92 103
92 105
92 107
92 108
92 110
92 111
92 114
92 115
92 116
92 117
92 118
92 122
92 130
92 131
92 132
92 139
92 140
92 146
92 150
92 151
92 153
93 96
93 98
93 99
93 100
93 103
93 104
93 109
93 110
93 111
93 115
93 117
93 118
93 119
93 121
93 122
93 123
93 126
93 127
93 129
93 132
93 133
93 136
93 140
93 145
93 147
93 150
93 151
93 153
93 156
94 97
94 98
94 107
94 111
94 114
94 116
94 118
94 126
94 132
94 134
94 138
94 140
94 141
94 142
94 145
94 149
94 153
94 154
94 155
94 156
94 158
95 99
95 100
95 102
95 109
95 110
95 117
95 121
95 122
95 123
95 125
95 131
95 135
95 145
95 147
95 149
95 154
95 155
95 157
95 158
95 159
96 100
96 101
96 104
96 107
96 109
96 112
96 113
96 115
96 129
96 131
96 132
96 136
96 141
96 150
96 151
96 153
96 155
96 156
96 158
97 99
97 108
97 109
97 118
97 119
97 121
97 122
97 126
97 129
97 133
97 137
97 138
97 140
97 148
97 150
97 152
97 154
97 157
98 100
98 104
98 110
98 113
98 115
98 122
98 126
98 127
98 128
98 129
98 130
98 134
98 135
98 138
98 139
98 140
98 142
98 144
98 145
98 146
98 147
98 148
98 151
98 153
99 105
99 109
99 110
99 112
99 113
99 120
99 126
99 131
99 133
99 135
99 139
99 140
99 143
99 148
99 149
99 151
99 156
99 158
100 103
100 104
100 107
100 123
100 131
100 135
100 144
100 147
100 156
101 108
101 109
101 123
101 124
101 127
101 133
101 138
101 139
101 141
101 142
101 145
101 148
101 155
101 158
102 109
102 110
102 111
102 114
102 120
102 121
102 122
102 124
102 132
102 133
102 134
102 139
102 140
102 141
102 153
102 155
102 156
103 106
103 107
103 124
103 125
103 131
103 132
103 136
103 145
103 150
103 156
103 157
103 159
104 109
104 110
104 122
104 123
104 124
104 125
104 127
104 128
104 130
104 136
104 137
104 138
104 141
104 149
104 150
104 152
104 156
105 106
105 107
105 108
105 111
105 114
105 115
105 116
105 120
105 123
105 134
105 138
105 141
105 143
105 147
105 148
105 155
105 156
106 107
106 110
106 122
106 127
106 130
106 140
106 141
106 148
106 150
106 152
106 153
106 156
106 158
106 159
107 110
107 116
107 122
107 130
107 131
107 132
107 133
107 134
107 136
107 138
107 141
107 143
107 147
107 150
107 154
107 157
107 159
108 111
108 115
108 116
108 121
108 122
108 123
108 124
108 131
108 139
108 140
108 142
108 145
108 147
108 148
108 150
108 151
108 155
109 112
109 119
109 121
109 124
109 133
109 137
109 138
109 140
109 143
109 144
109 147
109 148
109 151
109 152
109 154
109 157
110 112
110 114
110 116
110 118
110 120
110 124
110 126
110 130
110 139
110 140
110 143
110 147
110 149
110 157
111 121
111 122
111 124
111 126
111 127
111 131
111 132
111 137
111 139
111 140
111 142
111 148
111 159
112 114
112 115
112 123
112 126
112 137
112 140
112 142
112 145
112 148
113 117
113 118
113 121
113 127
113 128
113 129
113 131
113 140
113 141
113 144
113 146
113 150
113 154
113 155
114 115
114 116
114 120
114 121
114 131
114 137
114 138
114 140
114 142
114 147
114 151
114 155
115 116
115 122
115 123
115 126
115 129
115 132
115 137
115 138
115 143
115 145
115 149
115 155
116 120
116 127
116 129
116 130
116 137
116 142
116 145
116 154
116 156
116 157
117 118
117 121
117 123
117 124
117 127
117 130
117 137
117 140
117 142
117 143
117 144
117 149
117 150
117 151
118 119
118 120
118 123
118 126
118 127
118 130
118 132
118 134
118 142
118 144
118 145
118 148
118 149
118 152
118 154
118 155
118 156
119 121
119 122
119 123
119 124
119 125
119 126
119 127
119 130
119 132
119 135
119 136
119 137
119 138
119 150
119 154
119 157
119 158
120 133
120 134
120 135
120 136
120 137
120 140
120 145
120 146
120 147
120 152
120 153
120 156
120 157
120 159
121 132
121 137
121 138
121 139
121 140
121 143
121 147
121 150
121 153
121 155
121 156
122 125
122 126
122 131
122 133
122 137
122 140
122 142
122 144
122 147
122 152
122 155
122 157
122 158
123 124
123 127
123 129
123 133
123 142
123 143
123 146
123 148
123 150
123 153
123 156
123 158
124 125
124 130
124 131
124 141
124 144
124 147
124 148
124 149
124 151
124 153
124 154
124 156
124 157
125 129
125 133
125 134
125 135
125 136
125 139
125 141
125 144
125 156
125 158
126 130
126 132
126 136
126 139
126 140
126 144
126 149
126 152
126 153
126 156
126 157
126 158
126 159
127 133
127 140
127 143
127 146
127 149
127 153
127 156
128 129
128 131
128 132
128 134
128 139
128 144
128 145
128 149
128 151
128 152
128 153
128 158
129 131
129 134
129 140
129 144
129 145
129 148
129 149
129 150
129 152
129 157
129 159
130 132
130 143
130 144
130 149
130 150
130 152
130 153
131 135
131 136
131 139
131 140
131 141
131 143
131 144
131 154
132 133
132 151
132 159
133 134
133 136
133 138
133 141
133 145
133 146
133 156
133 157
133 159
134 138
134 139
134 141
134 143
134 144
134 146
134 148
135 137
135 140
135 141
135 149
135 153
135 155
136 139
136 140
136 143
136 147
136 150
136 154
137 141
137 142
137 143
137 147
137 152
137 153
137 156
137 158
137 159
138 140
138 145
138 146
138 148
138 152
139 147
139 156
139 157
140 147
140 148
140 149
140 155
141 143
141 150
141 152
141 153
141 156
141 158
141 159
142 143
142 145
142 146
142 150
142 155
142 156
143 145
143 146
143 148
143 155
143 156
143 157
143 158
143 159
144 145
144 151
144 152
144 157
144 158
144 159
145 152
145 153
145 154
145 159
146 149
146 151
146 154
146 159
147 148
147 150
147 154
147 155
147 157
147 158
147 159
148 152
148 157
149 154
149 155
149 159
150 151
150 152
150 154
151 152
151 157
152 159
153 156
153 159
154 156
154 158
155 156
155 158
155 159
156 157
158 159
160 161
161 162
162 163
163 164
164 165
165 166
166 167
167 168
168 169
169 170
170 171
172 173
173 174
174 175
175 176
176 177
177 178
178 179
179 180
180 181
181 182
182 183
