184 1941
6 7 11 12 13 14 17 22 25 26 31 33 35 41 48 52 54 63 73 75 161
4 8 10 11 12 16 22 24 25 27 28 36 39 44 54 56 61 62 69 73 77 173
8 12 13 18 22 26 27 28 32 35 37 49 52 63 66 74
2 10 11 16 17 25 26 36 47 49 63 70 72 73 75 80
8 9 12 15 16 19 23 25 34 37 41 42 45 46 48 50 52 53 54 63 66 67 75 79
1 7 8 9 12 25 28 31 32 33 35 36 37 40 41 44 47 48 52 54 56 58 60 62 65 67 68 70 80
1 6 8 12 13 23 26 27 32 33 35 41 44 50 55 56 61 62 64 65 68 69 71 80
2 3 5 6 7 9 10 13 15 20 22 27 28 32 35 36 39 42 45 46 47 52 55 56 60 62 68 71 77
5 6 8 12 18 20 26 32 35 41 43 45 49 53 57 59 61 62 71 72 73 74 75 78 80
2 4 8 11 12 25 28 29 31 33 36 42 49 50 52 57 58 61 65 71 72 73 75 77
1 2 4 10 14 15 17 25 28 33 36 39 41 44 45 46 47 49 52 54 62 70 72 74 75 77 79 80
1 2 3 5 6 7 9 10 17 18 19 20 21 25 28 29 31 34 37 39 44 49 50 56 58 59 60 61 62 63 66 68 69 70 77 78
1 3 7 8 15 16 18 26 36 37 39 45 46 49 56 61 63 67 68 70 72 75 78 80
1 11 15 16 18 24 25 33 36 39 40 42 50 51 52 53 56 57 58 62 63 65 69 71 77 79 80
5 8 11 13 14 23 24 28 29 32 34 36 44 46 47 49 56 57 59 64 68 69 71 75 76
2 4 5 13 14 22 23 24 31 32 34 35 38 40 42 43 44 47 52 57 58 66 75 76
1 4 11 12 18 19 23 28 31 38 41 43 48 50 51 53 60 71 72
3 9 12 13 14 17 22 25 26 28 31 33 40 42 44 45 47 50 61 64 65 67 72 73 74 75 77 78
5 12 17 21 22 23 27 37 39 43 44 45 47 48 52 55 59 61 70 72 75
8 9 12 33 37 38 43 44 46 52 55 58 59 61 66 72 73 75 79
12 19 24 25 26 29 31 40 43 44 45 46 47 54 58 63 65 72 75 77 79 80
1 2 3 8 16 18 19 29 32 34 38 44 45 46 48 52 55 56 65 67 70 72 74 75 76
5 7 15 16 17 19 25 27 30 32 33 36 39 40 42 46 55 57 59 61 63 65 66 67 73 74 76 78 80
2 14 15 16 21 30 34 37 38 39 41 43 55 59 63 64 67 69 75 80
1 2 4 5 6 10 11 12 14 18 21 23 27 30 31 37 38 41 42 43 45 48 50 51 52 53 55 57 58 72 79
1 3 4 7 9 13 18 21 27 34 36 37 39 45 48 49 50 54 59 60 62 67 70 71 76 80
2 3 7 8 19 23 25 26 34 36 40 43 44 48 54 57 61 63 67 77
2 3 6 8 10 11 12 15 17 18 41 43 44 46 48 52 54 60 64 66 68 69 70 71 75 76
10 12 15 21 22 31 39 41 47 51 52 53 59 62 65 73 79
23 24 25 31 33 36 39 45 48 50 51 52 55 60 65 66 69 73 75
1 6 10 12 16 17 18 21 25 29 30 33 35 37 39 44 51 52 53 55 59 63 64 65 68 69 70 71 74 75
3 6 7 8 9 15 16 22 23 43 46 51 56 58 60 61 63 68 69 75 77
1 6 7 10 11 14 18 20 23 30 31 36 38 40 42 44 52 53 58 59 62 65 67 68 74 79
5 12 15 16 22 24 26 27 46 54 59 70 72 75 78 79
1 3 6 7 8 9 16 31 38 43 44 48 54 62 67 69 70 77 80
2 4 6 8 10 11 13 14 15 23 26 27 30 33 37 40 41 46 61 66 67 68 70 73 75 77
3 5 6 12 13 19 20 24 25 26 31 36 40 49 53 57 59 61 62 70 74 75
16 17 20 22 24 25 33 35 39 41 42 43 44 47 50 53 57 58 59 61 67 69 70 76 78
2 8 11 12 13 14 19 23 24 26 29 30 31 38 41 42 43 47 52 54 55 56 60 61 62 64 67 69 71 74 77
6 14 16 18 21 23 27 33 36 37 42 43 52 54 56 68 69 73 74 75 76 80
1 5 6 7 9 11 17 24 25 28 29 36 38 39 42 46 47 52 54 57 58 60 64 72 73 79
5 8 10 14 16 18 23 25 33 38 39 40 41 44 45 46 47 49 50 51 54 55 56 58 64 65 67 75 78 80
9 16 17 19 20 21 24 25 27 28 32 35 38 39 40 44 48 50 57 62 63 71 72 75 77 79
2 6 7 11 12 15 16 18 19 20 21 22 27 28 31 33 35 38 42 43 50 51 53 56 61 63 64 65 72 74 76 77
5 8 9 11 13 18 19 21 22 25 26 30 42 46 47 50 54 55 57 60 62 63 65 67 68 72 75 76
5 8 11 13 15 20 21 22 23 28 32 34 36 41 42 45 48 53 62 63 69 70 71 74 76 79 80
4 6 8 11 15 16 18 19 21 29 38 39 41 42 45 49 53 57 62 67 69 72 75 78
1 5 6 17 19 22 25 26 27 28 30 35 43 46 51 55 56 57 59 62 63 66 68 74
3 4 9 10 11 12 13 15 26 37 42 47 51 52 54 56 59 60 64 65 74 80
5 7 10 12 14 17 18 25 26 30 38 42 43 44 45 53 67 68 70 71 72 73 74
14 17 25 29 30 31 32 42 44 48 49 54 61 69 71 72 80
1 3 5 6 8 10 11 14 16 19 20 22 25 28 29 30 31 33 39 40 41 49 53 58 63 67 71
5 9 14 17 25 29 31 33 37 38 44 46 47 50 52 55 56 59 68 69 70 72 74 75 79
1 2 5 6 11 21 26 27 28 34 35 39 40 41 42 45 49 51 64 65 68 70 74 75
7 8 19 20 22 23 24 25 30 31 39 42 45 48 53 59 64 70 71 72 74 75
2 6 7 8 12 13 14 15 22 32 39 40 42 44 48 49 53 57 58 61 63 64 66 68 76
9 10 14 15 16 23 25 27 37 38 41 43 45 47 48 56 67 70 73 77 78
6 10 12 14 16 20 21 25 32 33 38 41 42 52 56 63 66 68 69 72 76 78
9 12 15 19 20 23 24 26 29 31 33 34 37 38 48 49 53 55 60 62 64 67 71 73 76 78 79
6 8 12 17 26 28 30 32 39 41 45 49 59 61 65 68 69 72 73 78 79
2 7 9 10 12 13 18 19 20 23 27 32 36 37 38 39 44 51 56 60 62 64 66 67 71 72 79
2 6 7 8 9 11 12 14 26 29 33 35 37 39 43 45 46 47 48 59 61 63 65 66 68 73 76
1 3 4 5 12 13 14 21 23 24 27 31 32 43 44 45 46 48 52 56 58 62 65 67 71 72 74 78 79
7 15 18 24 28 31 39 41 42 44 49 54 55 56 59 61 65 66 69 76
6 7 10 14 18 21 22 23 29 30 31 33 42 44 45 49 54 60 62 63 64 68 70 73 74 78
3 5 12 16 20 23 28 30 36 48 56 58 61 62 64 73 78 80
5 6 13 18 22 23 24 26 27 33 35 36 38 39 42 45 47 50 52 57 59 61 63 72 73 76
6 7 8 12 13 15 28 31 32 33 36 40 45 48 50 53 54 56 58 60 62 65 74 76
2 7 12 14 15 24 28 30 31 32 35 38 39 40 46 47 51 53 58 60 64 78
4 6 11 12 13 19 22 26 28 31 34 35 36 37 38 46 50 53 54 55 57 65 71 75 76
7 8 9 10 14 15 17 26 28 31 39 43 46 50 51 52 55 59 61 63 70 72 75 80
4 9 10 11 13 17 18 19 20 21 22 25 34 41 43 44 45 47 50 51 53 55 58 60 61 63 67 71 77
1 2 4 9 10 18 20 23 29 30 36 40 41 50 57 59 60 62 65 66 67 77 78
3 9 11 18 22 23 31 33 37 39 40 44 46 48 49 50 53 54 55 63 65 68
1 4 5 9 10 11 13 15 16 18 19 20 21 22 24 28 30 31 32 34 36 37 40 42 43 45 47 53 54 55 70 71 77 78 79
15 16 22 23 26 28 38 40 44 45 46 56 58 59 62 64 67 68 70 79
2 8 10 11 12 14 18 21 27 32 35 36 39 43 44 57 72 73 75 80
9 12 13 18 23 34 38 42 47 57 58 59 60 63 65 66 69 73 75 79 80
5 11 14 20 21 25 29 33 34 41 43 46 53 59 60 61 63 75 76 78
4 6 7 9 11 13 14 21 23 24 26 35 40 42 46 49 51 66 71 77 78
83 85 93 96 112 115 117 118 119 120 125 128 132 133 136 137 139 145 148 149 150 151 160 172
83 86 89 92 96 102 108 110 113 118 120 121 126 133 136 139 140 145 146 147 150 184
81 82 88 89 90 95 98 112 113 115 118 119 120 122 127 129 130 133 140 141 148 149 153 156 159
91 92 94 95 98 100 101 105 109 112 113 116 117 119 120 121 126 127 129 139 140 146 153 155
81 86 88 91 94 100 115 118 119 120 127 128 132 138 140 145 147 148 149 150 151 152 155 157
82 85 96 99 100 101 102 105 107 108 109 111 112 123 126 129 132 134 135 136 139 142 145 146 151 156 158 159
92 97 98 102 103 104 108 111 118 126 129 136 139 140 152 156 158 159
83 85 91 92 101 102 105 106 107 108 111 113 117 126 136 139 140 141 145 147 152 153 154 159
82 83 92 94 95 102 103 110 117 118 121 123 124 126 133 134 135 141 143 147 150 157
83 92 96 99 100 108 111 121 130 132 136 139 144 146 155 156
84 85 88 99 102 110 118 119 125 126 129 131 136 140 144 145 151 153 158
82 84 87 88 89 90 95 96 99 100 102 104 114 116 119 120 122 124 125 129 131 134 135 136 137 144 146 153 154 157
81 102 104 106 108 109 111 112 115 116 117 118 119 123 131 132 133 140 141 147 151 152 154
84 85 89 97 99 100 101 104 105 110 111 112 116 118 119 120 122 123 124 127 128 130 133 134 137 141 146 148 151 152 154 157
83 84 89 92 98 99 108 112 115 117 119 127 133 135 139 141 142 143 146 150 154 155 156 157 159
81 82 86 90 92 100 101 103 110 111 118 122 123 124 126 132 136 146 148 150 155 156 158 159 160
87 94 101 102 105 108 110 113 114 116 130 132 133 137 142 151 152 154 156 157 159
83 84 87 95 100 109 110 119 120 122 123 127 130 134 138 139 141 149 151 153 155 158
86 90 91 92 94 95 101 105 111 114 116 123 127 128 129 130 131 135 136 139 140 141 143 145 146 147 148 149 152 154
84 85 86 90 92 94 96 98 106 110 111 113 114 121 127 132 134 136 140 141 144 149 150 152 157 159
84 86 88 94 96 97 99 104 105 108 124 132 136 145 148 157
82 86 87 88 89 91 92 93 97 109 110 124 125 128 134 139 140 142 143 146 149 156 159
87 89 96 110 111 112 115 121 122 123 125 133 134 135 140 141 142 154 156 157
87 92 93 94 101 107 108 125 126 132 133 137 146 151 157 158 160
84 86 88 94 97 99 101 110 111 123 124 125 126 128 129 131 137 138 139 142 150 151 153 157
88 93 100 107 108 109 112 115 116 117 121 124 135 139 142 144 148 149 156 157
86 88 104 106 108 111 123 128 131 141 142 149 151 153 154 157 159 160
82 86 87 88 90 93 95 97 101 104 106 107 111 117 123 131 132 133 134 135 137 139 142 144 148 151 155 158 160
84 86 93 98 102 106 112 116 117 122 123 124 125 132 140 141 143 146 148 149 151 152 156
82 89 91 94 96 97 98 100 102 103 105 113 120 122 125 134 138 139 141 144 145 148 149 152 153 155 158
86 87 88 90 93 94 96 99 100 103 105 107 108 113 115 117 119 121 125 127 131 140 141 144 148 150 158
81 83 84 86 93 94 95 103 106 109 122 123 125 127 128 132 133 138 140 141 143 149 160
82 83 84 88 97 100 110 111 115 116 124 127 138 141 143 146 149
92 97 99 100 118 119 122 128 129 130 132 141 142 145 147 151 155 156
81 83 85 93 95 103 106 111 113 116 117 121 122 132 138 139 141 143 148 152 156
84 92 93 94 97 99 106 109 113 115 117 123 124 127 130 133 138 139 144 146 150 156
81 84 88 89 93 95 106 108 109 111 115 116 121 128 130 131 138 143 146 155 157 158
81 82 83 85 87 89 91 93 94 96 114 119 122 124 125 128 131 138 141 143 144 145 150 151 152
81 83 84 85 91 92 93 94 95 98 111 114 118 120 121 124 127 128 131 133 135 143 145 146 149 150 153 155 156 157
81 82 83 84 85 92 94 98 110 119 122 123 124 125 126 127 128 131 133 136 137 138 139 151 155 158 159
82 84 89 90 100 103 106 111 115 117 119 134 135 136 137 138 141 146 147 148 153 154 157 158 160
83 92 94 96 98 103 109 110 112 114 115 118 120 133 138 139 140 141 144 148 151 154 156 157
86 89 93 94 96 98 99 103 105 107 108 109 112 116 120 126 127 132 134 138 141 143 145 148 153 156 158 159
89 92 94 96 101 102 105 106 109 113 116 118 119 120 125 128 130 134 143 144 147 149 151 154 157 159
81 91 92 102 103 104 105 109 110 111 112 118 120 124 126 131 132 142 145 148 149 150 152 154 155 157 158
82 84 86 87 88 89 91 96 104 105 120 123 125 130 134 135 136 137 140 142 145 157 159
83 84 85 94 95 98 99 100 111 112 113 116 119 120 123 131 133 137 140 141 145 150 153 154 157 158 159 160
81 85 94 99 102 105 107 112 114 117 118 119 120 124 134 141 144 147 150 154 157
83 84 86 87 91 92 99 105 114 130 132 133 135 140 145 146 150 152 153 154 159
83 90 94 97 98 99 114 116 117 124 126 129 132 135 141 145 146 149 150 151 153 158 160
91 92 93 99 105 107 108 111 117 118 119 120 125 127 133 144 145 150 151 153 154
81 85 86 90 93 96 97 100 101 104 108 109 112 114 115 123 125 129 130 136 137 140 141 142 144 145 155
81 82 83 89 93 94 95 97 103 104 108 112 116 119 120 122 127 129 131 134 152 160
86 89 92 94 98 100 102 103 108 110 121 123 124 126 128 133 135 137 139 142 146 147 157 158 160
86 89 92 95 99 103 106 108 119 121 126 129 130 134 139 140 142 144 145 147 149
81 82 86 87 88 90 91 92 96 99 100 101 120 121 126 132 138 141 142 150 154 156
81 92 94 97 104 105 108 120 121 126 127 132 134 140 141 144 148 151 155
85 98 105 110 112 113 115 116 117 118 120 121 122 123 136 142 143 144 148 153 154 157 159 160
81 82 84 86 87 88 90 95 98 99 102 105 106 108 110 115 116 120 122 134 135 141 146 147 149 153
82 83 84 85 87 88 91 93 99 100 102 103 109 111 112 122 126 127 129 132 135 137 148 157 158
83 88 89 93 94 95 98 99 100 103 107 109 110 111 112 113 114 115 118 121 122 123 127 128 130 132 136 137 139 148 149 150 156
86 95 97 102 103 105 106 107 108 114 125 126 132 134 135 136 138 144 151 153 154 157 159 160
89 95 99 102 109 112 113 115 117 118 119 123 124 138 144 146 147 151 156 157
90 91 92 100 106 108 110 111 116 118 122 124 128 131 132 135 137 138 142 143 146 147 149 156 157 158 159 160
81 82 85 86 88 91 99 101 110 114 118 119 123 125 126 127 129 130 131 132 135 146 152 153 158 159 160
82 84 86 90 92 94 95 96 99 102 104 109 113 116 117 119 121 129 130 134 139 143 144 145 153 154 155 160
82 85 88 89 93 99 114 121 124 128 134 135 139 143 144 150 152 155 160
81 83 85 94 96 99 101 106 108 109 110 111 115 121 122 123 125 137 138 140 141 149 151 155 156 158 159 160
81 83 85 98 99 100 102 106 107 109 110 112 113 119 124 125 130 135 139 141 144 148 153 158
81 82 85 89 95 96 100 105 111 116 118 119 125 127 128 129 130 131 136 141 147 155 156 160
81 85 86 91 93 94 97 98 104 105 107 108 109 114 118 120 122 124 130 131 137 142 143 148 152 153 155
85 87 88 93 94 97 99 100 109 110 115 118 125 129 133 145 147 151 153 158
83 84 88 91 92 98 105 107 110 119 121 123 127 129 130 131 138 139 142 145 146 149 151 152 160
88 92 93 94 95 97 99 103 107 121 122 124 125 127 128 129 131 136 138 142 146 157 160
84 85 90 95 96 98 108 110 114 117 119 120 125 132 137 146 147 148 150 151 157 159
83 86 87 90 95 96 97 102 103 106 109 114 115 116 119 122 123 136 141 143 144 148 150 157 159 160
85 89 92 94 95 97 100 101 103 104 105 106 107 117 119 121 122 124 125 126 127 128 134 138 140 142 143 144 154 155 156 158
86 87 91 96 98 104 108 110 111 117 120 121 123 125 127 130 134 140 144 145 148 149 152 157
83 86 87 88 95 96 97 100 102 107 120 123 124 126 127 129 138 142 144 145 148 155 156 160
81 96 104 107 108 112 121 127 130 133 134 138 142 144 145 146 147 148 150 153 154 156 159
1 162
161 163
162 164
163 165
164 166
165 167
166 168
167 169
168 170
169 171
170 172
81 171
2 174
173 175
174 176
175 177
176 178
177 179
178 180
179 181
180 182
181 183
182 184
82 183
