160 613
2 10 19 20 32
1 5 14 19 27 54
8 15 19 20 22 23 35 40 122
7 11 16 19 28 29 36 71 81 139
2 21 25 29 136
8 11 19 33 43 62 103
4 11 21 23 28 33 78
3 6 30
10 13 16 27 29 31 32 35 160
1 9 34 43 78 130 132
4 6 7 21 31 34 36
24 29 32 37
9 17 26 32 72 143
2 22 24 32 40
3 19 25 26 31 33 128
4 9 20 96 140 158
13 26 32 34
24 27
1 2 3 4 6 15 27 35 36
1 3 16 24 27 29 40 146
5 7 11 24 26 27 38 40 55 61 109 122 153
3 14 29 32 34 40 68 75 95 113
3 7 28 31 57 62 143
12 14 18 20 21 36 38 40 53 72 103 118 128
5 15 33 36 37 38 39
13 15 17 21 27 33 36 38 126 143
2 9 18 19 20 21 26 28 29
4 7 23 27 29 32 38 40
4 5 9 12 20 22 27 28 56
8 33 36 62
9 11 15 23
1 9 12 13 14 17 22 28 33 36 39 101 107 130
6 7 15 25 26 30 32 40 117
10 11 17 22 38 52
3 9 19 82
4 11 19 24 25 26 30 32
12 25 62
21 24 25 26 28 34 39
25 32 38 40
3 14 20 21 22 24 28 33 39
42 44 52 54 57 60 71
41 61 62 64 68 78 128
6 10 47 48 54 61 65 66 69 73 76 80 134
41 49 51 53 59 75 76 77
47 49 58 71 73
58 70 79 89 110
43 45 49 70 73
43 54 59 66 71
44 45 47 55 62 72 79 105
61 63 66 68 71 84
44 52 53 74 77 79 122
34 41 51 53 55 68 69 72 88 97 102
24 44 51 52 56 63 67 78 80 93
2 41 43 48 58 72 106
21 49 52 61 67 75 77 148
29 53 58 59 64 67 74 75 77 78
23 41 58 65 68 74
45 46 54 56 57 68 72 73 140 159
44 48 56 69 70 73 79
41 63 66 72 81 106
21 42 43 50 55 62 69 78
6 23 30 37 42 49 61 73 78
50 53 60 65 76 77 79
42 56 78
43 57 63 66 70 73
43 48 50 60 65 71 75 152
53 55 56 70 74
22 42 50 52 57 58 72 73 77
43 52 59 61 77 80
46 47 59 65 67 72 77 80 101 155
4 41 45 48 50 66 73 77 80
13 24 49 52 54 58 60 68 70 78 80 103 158
43 45 47 58 59 62 65 68 71 74
51 56 57 67 73 102 146
22 44 55 56 66 79
43 44 63
44 51 55 56 63 68 69 70 71 78
7 10 42 53 56 61 62 64 72 77 150
46 49 51 59 63 75 123
43 53 69 70 71 72 85
4 60 90 98 109 114
35 93 99 107
84 90 93 94 96 105 107 108 112 115 118
50 83 86 87 90 91 97 99 100 133
80 99 104 105 110 114 119
84 89 90 98 103 110 113 119 120 122
84 98 105 113
52 92 94 99 104 118
46 86 92 94 97 104 108 109 113 125
81 83 84 86 91 93 96 101 104 106 109 117 118 144
84 90 92 100 102 107 111 114 116 120 121 151
88 89 91 100 104 105 109 110 119 122
53 82 83 90 96 112 117 120 121
83 88 89 99 104 107 113 116
22 97 98 99 106
16 83 90 93 99 102 103 106 108 109 114 118 120
52 84 89 95 100 101 103 120
81 86 87 95 100 105 113 117 150
82 84 85 88 94 95 96 100 101 105 119 145
84 91 92 97 98 99 105 106 111 114 117 119
32 70 90 97 99 102 106 109 111 120 156
52 74 91 96 101 106 110 120
6 24 72 86 96 97 104 105 107 113 115 120 125
85 88 89 90 92 94 103 111
49 83 85 87 92 98 99 100 103 107 112 118
54 60 90 95 96 100 101 102 110 112
32 82 83 91 94 103 105 116 117 118 120
83 89 96 109 113
21 81 89 90 92 96 101 108 113 115 116 118 153
46 85 86 92 102 106 115 129
91 100 101 104 113 115 119
83 93 105 106
22 86 87 89 94 98 103 108 109 111 116 140
81 85 91 96 100 115
83 103 109 110 111 114 120
91 94 107 109 113
33 90 93 98 100 107
24 83 88 90 96 105 107 109
85 86 92 99 100 111 120 124
86 91 93 96 97 101 102 103 107 115 119
91 93 131 134 135 141 143 155 156
3 21 51 86 92 124 131 133 148
79 126 128 130 132 142 148 149 150 151 160
119 122 127 128 133 145 151 159
89 103 130 142 149
26 123 134 140 142 156 159
124 132 144
15 24 42 123 124 136 141 146 148
110 134 140 159
10 32 123 125 143 156
121 122 132 138 139 140 154 157 159
10 123 127 131 135 141 145 146
84 122 124 143 144 149 150 155 160
43 121 126 129 136 137 138 142 143 151 152
121 132 155
5 128 134 143 150 154
134 141 144 146 147 152 153 154 156 160
131 134 147 155
4 131 144
16 58 113 126 129 131 150 154 158
121 128 132 137 145 151 156
123 125 126 134 151 154 157
13 23 26 121 130 133 134 136 144 151
90 127 133 137 139 143 148 150 153 158
99 124 132 141 146 151 154
20 74 128 132 137 145 154 159
137 138 148
55 122 123 128 144 147 154
123 125 133 150
78 98 123 133 136 140 144 149
91 123 124 134 141 142 143 145
66 134 137 153 156
21 109 137 144 152 159
131 136 137 140 142 145 146 148
70 121 133 135 138 156 157 159 160
101 121 126 130 137 141 152 155 160
131 142 155
16 72 140 144 159
58 124 126 129 131 146 153 155 158 160
9 123 133 137 155 156 159
