160 581
3 4 32 37 116 119 122
72 102
1 10 12 29 31 70 92 109
1 7 25 33 90 107
8 12 14 61 69 82 93 121
8 10 19 20 30 58 111
4 23 31 65
5 6 13 18 24 29 32 34 100 104 109 143
26 40 96 125 141
3 6 26 34 56 70 72 110 130 134 138 148 160
24 30 34 37 69 104 112
3 5 14 33 45 142 143 153 155
8 27 35 65 78
5 12 20 47 74 96 98 112
17 23 29 36 37 44 62 135 141
33 36 48 63 104 110 113 133
15 34 57 77 128
8 87 157
6 30 52 78 84 122
6 14 63 115 160
25 54 57 66 102 140
152
7 15 29 57 138
8 11 28 60 69 100 110 115
4 21 30 36 98 104 130
9 10 33 51 105 115 119 125 146 150
13 69 91 99 105 117 150
24 34 41 57 122
3 8 15 23 44 53 67 68 156
6 11 19 25 35 92 129 147
3 7 108
1 8 54 71 100 135
4 12 16 26 68 106
8 10 11 17 28 76 98 104
13 30 36 40 56 67 95 125 146 148
15 16 25 35 120
1 11 15 39
85 93 108 124 148
37 45 88 114 118
9 35
28 48 53 56 126 129 160
44 45 134 141 153
45 47 65 66 67 69 133
15 29 42 48 54 55 63 152
12 39 42 43 55 74 78 85 97 134
51 55 59 63 107
14 43 60 71 129
16 41 44 69 73 80 94 130
57 63 68 70 72 78 79 146
51 131
26 46 50 55 62 116 121 160
19 78 122 137
29 41 58 59 110 143
21 32 44 55 62 102 105 124 129
44 45 46 51 54 67 70 76 77 119 120
10 35 41 78 86 121 126
17 21 23 28 49 74 100 103 132 152
6 53 61 63 79 104 105 106 155
46 53 61 62 69 98 141 146
24 47 63 66 80 83 99 126
5 58 59 62 63 83
15 51 54 59 61 67 73 77 80 106 128 135
16 20 44 46 49 58 60 61 69 97 102 129 139 150
77 124
7 13 43 68 72 73 77
21 43 60 75 81
29 35 43 55 62
29 33 49 65 83 152 154 158
5 11 24 27 43 48 59 63 78 85 116 127
3 10 49 55 79 81 141 156
32 47 75 80 122 128
2 10 49 65 91 125
48 62 65 79 90 119
14 45 57 78 154
66 71 80 150
34 55 90 112 125 147 158
17 55 62 64 65 84 102 137 148 154
13 19 45 49 52 56 69 74 79 139 157 158
49 58 70 73 78 84 109 142
48 60 62 71 75 95 126
66 70 83 91 107 111 118 119
5 104 116 120 133 154
60 61 68 81 92 105 111 113 158 160
19 77 79 95 97 98 109 115 153
38 45 69 92 110 119
56 112 119
18 107 116 120 136 150
39 91 107 113 114 117 120 149
103 106 115 143
4 73 76 99 101 107 119 150
27 72 81 88 105
3 30 83 85 110 111 112 116 153
5 38 95 102 112 119 141 155
48 103 105 110 114 123
35 80 84 93 120 150
9 14 105 109 115 120
45 63 84 107 114 118 125
14 25 34 59 84 105 109 120 145
27 60 90 101 118 146
8 24 32 57 112 125 145 159
90 99 105 106 115 144
2 21 54 63 77 93 122
57 89 94 112 117 120 153
8 11 16 25 34 58 82 105 153
26 27 54 58 83 91 94 96 98 101 104 112 113 116 143 144
33 58 62 89 101 115 139 144
4 46 81 87 88 90 97 110 125
31 38 112 144
3 8 79 84 96 98 119
10 16 24 53 85 92 94 107 115 131 151 160
6 81 83 92 120
11 14 76 86 92 93 100 103 105 108 119
16 83 88 105 120 122 134 143
39 88 94 97 132 142
20 24 26 84 89 96 101 106 110 117 129
1 51 69 82 87 92 105 118 119 139 160
27 88 103 115
39 81 97 99 116 119 120
1 26 55 73 81 85 86 90 93 109 112 116 118
36 55 82 87 88 95 96 98 103 111 113 118 129 136 145
5 51 56 128 129 130 139
1 19 28 52 71 102 113 142 150 159
94 125 134 143 144 146
38 54 64 136 146
9 26 35 72 76 97 100 107 123 134 135 150 157 159
41 56 60 80 130 144 156 158
69 156
17 62 71 121
30 41 47 54 63 115 120 121 143 144
10 25 48 121 126 134 137 138 145
50 110 139 153
57 114 136 141 150 156
16 43 82 134 142 153 158
10 42 45 113 123 125 130 133 147
15 32 62 125 144 158
87 120 124 132 138 140 143 146 149 160
52 77 130 148 155 157
10 23 130 136 154 159
63 78 106 116 121 131 156
21 136 141 144 150 155
9 15 42 59 70 93 132 140 152 154
12 79 114 122 133 149 150
8 12 53 89 105 113 123 129 136 148
101 105 106 108 123 126 129 135 140 145 151
98 100 120 130 144 147 148
26 35 49 59 99 123 124 136 152 157
30 76 134 145 159
10 35 38 77 137 143 145 150 153
88 136 142
26 27 63 75 87 90 95 122 125 132 140 142 148
110 144 156
22 44 57 68 141 146 153
12 42 84 92 103 104 131 133 148 152 159
68 74 77 82 138 141
12 58 93 137 140 158
29 70 126 127 132 139 151
18 78 125 137 146 158
68 76 78 83 126 133 135 155 157
100 122 125 138 147 153
10 20 41 51 83 110 116 136
