270 809
2 3 4 5 8 12 13 17 21 24 29 30 34 39 45 47 49 55 70 78 82 83 84 86 98 103 108 109 122 130 134 148 151 159 161 183 185 204 207 218 234 235 250 269
1 5 6 7 8 9 16 17 20 26 28 31 38 40 46 49 53 57 64 66 68 71 79 81 83 84 85 89 94 97 107 111 113 116 121 123 135 138 144 145 148 165 172 181 195 206 220 229 230 231 236 262
1 5 6 7 9 13 14 18 22 23 60 64 67 73 75 81 88 91 103 120 127 128 129 137 147 149 150 151 167 173 203 211 214 221 230 246
1 7 10 24 25 52 67 76 79 110 113 130 135 164 197 198 225 228 239 245 251
1 2 3 6 8 9 11 12 13 15 25 26 28 40 41 44 48 54 58 59 61 83 85 96 98 99 106 131 139 140 168 178 202 214 223 248 251 252 257
2 3 5 11 12 14 16 27 29 31 34 40 47 53 69 79 80 95 111 117 160 181 188 192 225 232 239 250 263 269
2 3 4 15 31 37 176 207 264 266
1 2 5 10 11 22 23 24 25 30 33 41 43 52 60 70 71 74 77 90 92 100 106 109 118 143 155 156 162 175 178 186 187 192 206 209 211 220 246 267 269
2 3 5 10 14 16 20 21 32 33 36 46 62 75 76 88 104 136 137 156 157 158 159 194 200 205 223 227 241 254 258 259
4 8 9 66 162 233
5 6 8 15 17 19 30 34 44 50 52 58 96 194 262
1 5 6 18 27 32 42 86 89 90 114 121 124 146 174 183 249
1 3 5 20 29 38 43 78 89 120 235 243 253
3 6 9 27 45 50 63 74 97 101 152 163 173 176 261
5 7 11 18 19 23 63 134 149 157 159 190 208 231
2 6 9 21 22 35 60 102 141 142 149 150 166 180 183 226 231
1 2 11 19 59 69 80 163 191 196
3 12 15 26 56 171
11 15 17 35 47 48 56 76 78 113 129 143 197 248
2 9 13 36 72 82 85 125 152 156 180 219 222
1 9 16 42 46 54 65 83 116 258
3 8 16 33 42 51 65 95 102 104 139 168 179 203 237 258
3 8 15 61 67 164 197
1 4 8 28
4 5 8 36 44 45 95 102 103 131 175 186 212 243 254
2 5 18 56 111 119 128 146 200 244
6 12 14 35 77
2 5 24 39 96 127 145
1 6 13 107 124 261
1 8 11 62 98 154 213
2 6 7 32 41 51 55 70 73 87 92 114 167 177 237
9 12 31 54 64 69 100 109 136 212 216 247 265
8 9 22 38 59 91 99 101 117 118 215
1 6 11 37 136 215 264
16 19 27 37 39 80 132 142 147 188 210 234
9 20 25 132
7 34 35 91
2 13 33 43 57 58 72 81 87 108 217
1 28 35 53 171
2 5 6 55 250
5 8 31 49 50 110 133 144 147 160
12 21 22 77 211 232
8 13 38 48 92 105 140 184 186 190 193 204 219 229
5 11 25 61 82 88 180 244 245 265
1 14 25 162
2 9 21 51
1 6 19 237
5 19 43 73 75 90 125 166 224 260
1 2 41 65 124 153 242 257
11 14 41 68 94 135 148 202 206
22 31 46 89 172 195 263
4 8 11 161
2 6 39 62
5 21 32 127
1 31 40 68 93 187 213
18 19 26 57 72 104 107 116 143 205
2 38 56 71 94 138 202 222
5 11 38 63 93 112 154 228
5 17 33 66 112 141 164 227 262
3 8 16 122 150 157 169 201 252
5 23 44 100 105 174
9 30 53 163 194 263
14 15 58 249
2 3 32 256
21 22 49 144
2 10 59 74 93 112 165
3 4 23 115 120 174 188 218 221 228
2 50 55
6 17 32 189 240
1 8 31 266
2 8 57 123 240 253
20 38 56 87 189 215 267
3 31 48 86 208
8 14 66 105 115 129 224
3 9 48 134
4 9 19 99 233
8 27 42 97
1 13 19 108 122 161 178
2 4 6 115 125 138 212
6 17 35 110 114 155 195 204 209 238
2 3 38 131 160
1 20 44 84 185 267
1 2 5 21 117 177
1 2 82 118 119 153 170 221 234
2 5 20 101
1 12 73 137
31 38 72 205
3 9 44 235
2 12 13 51 128
8 12 48 130 153 244
3 33 37 123 158 175
8 31 43 145
55 58 66 126 243
2 50 57 242
6 22 25
5 11 28 121
2 14 77 170 177 182 185 193 201 233 238
1 5 30 166
5 33 76 165 169
8 32 61 106 196
14 33 85
16 22 25 171
1 3 25 181 184
9 22 56
43 61 74 229 254
5 8 100 119 126 133 168 216 255
2 29 56
1 38 78 126 220 263
1 8 32 172 238
4 41 80 132 139 224 239
2 6 26 141 154 192
58 59 66 225
2 4 19
12 31 80
67 74 79 167 176 187
2 21 56 199 214
6 33 83 199
8 33 84
26 84 106 169
3 13 67
2 12 96
1 60 78 230
2 71 91 248
12 29 49 146 182 226 230 244
20 48 79 201
93 106 108 173 189
3 28 54 152 253
3 26 89
3 19 74
1 4 90 133
5 25 81 184
35 36 110
41 106 130 158
1 15 75
2 4 50 142 155 191
9 32 34 182
3 9 86 190 207
2 57 79 140 151 241 259
5 22 110 209 219 255
5 43 138
16 59 111
16 35 135 268
8 19 56
2 41 65
2 28 92
12 26 124
3 35 41
1 2 50
3 15 16 259
3 16 60 170 223
1 3 138
14 20 127
49 84 90
30 58 111
8 80 135
8 9 20 179 252 257
9 15 60
9 91 133 193 227
1 9 15 251 255
6 41 81 200 261
1 52 78
8 10 45
14 17 62
4 23 59 232 268
2 66 99 210 220
16 48 98 210
3 31 115 179
5 22 106 191 208 216
60 99 119
84 97 150
18 39 102 218
2 51 109 203
3 14 126
12 61 67
8 25 91 213
7 14 115
31 83 97 199
5 8 78 198
22 156 167
16 20 44
2 6 103
97 124 136
1 12 16 247
43 103 131
1 82 97 264
8 25 43 217
8 55 115 196
6 35 67
69 72 126
15 43 137 201 204 236
17 135 168
6 8 111 242
43 97 158
9 11 62 260
2 51 80 198
17 100 187
4 19 23 226
4 178 195 217
116 117 177
9 26 160
60 97 125 190
5 50 57
3 22 172
1 43 80 190
9 56 87
2 8 50 240
1 7 137
15 73 168
8 80 139 265
35 165 166
3 8 42 236 256 270
25 32 79
30 55 175
3 5 116
33 34 72
32 106 168
38 186 198 222
1 67 171
20 43 139 241 245 256
2 8 108 165 268
3 67 84
20 57 217 247
5 9 150
48 74 110
4 6 112
16 124 197 260
9 59 158
4 58 67 249
2 43 105
2 3 122 124
2 15 16
6 42 164
10 76 97 246
1 35 84
1 13 88
2 190 211
22 31 47
80 97 109
4 6 110
69 71 206
9 138 219
49 94 192
13 25 93
26 44 90 124
4 44 219
3 8 233
32 183 222
5 19 123
12 63 228
1 6 40
4 5 159
5 60 156
13 71 127
9 25 105
106 139 159 270
64 211 219
5 49 156 266
9 21 22
9 138 149
48 194 226
14 29 160
2 11 59
6 51 62 108
7 34 185 270
32 44 209
7 70 257
8 72 82
142 164 220
1 6 8
211 255 264
