200 597
2 3 4 5 6 7 8 10 11 12 14 15 20 22 25 32 88 93 97 114 117 123 131 145 152 158
1 5 6 8 12 14 15 16 32 33 44 78 82 89 132 148 166
1 5 7 9 10 17 19 31 34 35 39 48 50 52 68 86 115 133 139 147 148 151 177 181
1 9 21 28 36 46 70 92
1 2 3 6 7 9 11 16 22 30 37 47 48 61 78 85 89 99 105 131 141 156 193
1 2 5 18 23 24 29 122 193
1 3 5 8 12 13 19 20 21 25 27 34 37 45 48 62 74 85 91 99 101 102 103 113 116 117 118 126 136 137 141 143 147 151 174 180 196
1 2 7 10 11 13 15 25 26 29 30 31 46 59 62 65 70 76 83 85 91 98 104 107 120 136 137 139 150 166 175 187 188 189 194 198
3 4 5 17 24 54 144 163 168
1 3 8 13 14 17 18 26 28 29 34 36 56 58 69 84 108 110 142 146 169 192 194
1 5 8 23 24 33 36 45 51 59 72 74 77 84 125 127 157 161 179 180 197
1 2 7 23 35 88 98 181 191
7 8 10 56 64 67 75 95 134 185 195
1 2 10 59 90 107 112 116 151 179
1 2 8 16 18 21 27 32 38 50 54 74 80 110 123 136 159 186
2 5 15 20 22 27 43 44 53 55 61 63 100 113 120 154
3 9 10 19 31 42 44 47 61 71 86 116 134 152 154 161 175 181 184
6 10 15 52 71 187
3 7 17 46
1 7 16 26 40 57 69 96 111 122 155 167
4 7 15 43 49 54 76 120 139 164
1 5 16 38 40 52 75 77 107 117 119
6 11 12 28 62 66 86 98 123 138 184
6 9 11 30 37 99 121 143 181 196
1 7 8 33 39 50 97 101 103 159 182
8 10 20 41 66 145
7 15 16 35 42 60 67 103 124 128 129
4 10 23 63 66 71 73 104 152 170 178
6 8 10 124 129 135 143
5 8 24 41 49 64 67 89 92 96 133
3 8 17 130 146
1 2 15 38 40 60 73 95 122 137 146
2 11 25 41 42 51 82 133 186
3 7 10 53 127 135
3 12 27 43 45 55 57 58 79 147 171 189 190
4 10 11 39 58 72 73 94 111 150
5 7 24 79 97 100 115 119 129 173 196
15 22 32 63 111
3 25 36 56 77 87 108 114 124
20 22 32 47 51 100 105 125 163
26 30 33 55 65 106
17 27 33 81 93 142 164 169
16 21 35 57 60 72 188
2 16 17 49 82 127 128 140
7 11 35 82 96
4 8 19
5 17 40
3 5 7 155 164
21 30 44 118 131 156 166 172
3 15 25 53 75 191
11 33 40
3 18 22
16 34 50 171
9 15 21 140 176
16 35 41 158 162
10 13 39 158
20 35 43 90 109 155 194
10 35 36 68 76 83 93 170 195
8 11 14 144
27 32 43 65 79 95 112 115 160 168 175
5 16 17
7 8 23 64 68 69 70 81 94 161
16 28 38 81
13 30 62
8 41 60
23 26 28
13 27 30 121 149
3 58 62
10 20 62 94 184
4 8 62 138
17 18 28 80 178
11 36 43 80 87 88 91 92 101 162 185
28 32 36 78
7 11 15 102
13 22 50 83 126 180 198 200
8 21 58
11 22 39 102 110 125 135 169 171 177
2 5 73
35 37 60 90 167
15 71 72
42 62 63 84 150 167
2 33 44 45 104
8 58 75
10 11 81 87 178
5 7 8 106
3 17 23 118 142
39 72 84 106 112 132
1 12 72 105
2 5 30 165
14 57 79
7 8 72 140
4 30 72 94
1 42 58 109 173 195
36 62 69 92 130 199
13 32 60 113
20 30 45
1 25 37
8 12 23 172 183 187
5 7 24 109 121 199
16 37 40 108
7 25 72 119
7 74 77 145
7 25 27 145
8 28 82 148
5 40 88 153 186
41 85 87
8 14 22
10 39 100 126 138
57 93 99 114 128
10 15 77
20 36 38
14 60 87 198
7 16 95 149 176
1 39 109 130 149 197
3 37 60 173
7 14 17
1 7 22 163 183
7 49 86 162
22 37 101 132 170
8 16 21 153
24 67 99 185
6 20 32 165
1 15 23
27 29 39
11 40 77
7 75 108
11 34 44 154 197
27 44 109 168 192
27 29 37 144 146 189
31 94 114 134
1 5 49
2 87 119 183
3 30 33
13 17 130 188
29 34 77 160 174
7 8 15 200
7 8 32 141 182
23 70 108 153
3 8 21
44 54 91 157
5 7 137 156
10 42 86 176
7 24 29
9 59 129
1 26 102 103
10 31 32 129
3 7 35 179
2 3 104
67 113 114
8 36 81
3 7 14
1 17 28 165 200
105 120 138 157
16 17 127
20 48 57 159
5 49 141
11 140 153
1 55 56 160
15 25 155
60 135 158
11 17 62
55 72 118 190
9 40 117
21 42 48
89 122 152
2 8 49 191
20 79 81 172 174
9 60 128
10 42 77
28 58 119
35 53 77
49 98 167
37 93 115
7 135 167
8 17 60 197
54 113 142 177
3 77 176 190
28 71 84
11 14 147 182
7 11 75
3 12 17 24
25 137 179
98 117 132
17 23 69
13 72 121 193
15 33 105
8 18 98
8 43 134 192
8 35 129
35 162 177
12 50 166
10 128 188
5 6 185
8 10 57
13 58 93
7 24 37 199
11 114 127 175
8 75 112
94 99 196
75 136 152
