160 640
4 6 9 14 17 21 24 28 37 39 83
6 10 26 82 102
4 6 22 24 25 33 78 109 120
1 3 6 13 26 27 29 30 31 35 40 76
9 12 13 14 23 26 27 40 98
1 2 3 4 39 47
8 10 15 21 22 32 33 139
7 17 26 32
1 5 20 30 33 37 49
2 7 11 13 18 24 26 30 39 40 156 158
10 25 37 38 59 110 111 150 160
5 15 17 18 19 21 37 40 65 96
4 5 10 15 20 22 24 39
1 5 16 24 35 38 40 90 98
7 12 13 16 24 25 28 32 34 37 39 148
14 15 22
1 8 12 19 20 23 27 31 32 47 72 154
10 12 23 24 37 38 39 117
12 17 23 29 58 137
9 13 17 29 39 111
1 7 12 36 135 144
3 7 13 16 23 27 32 35
5 17 18 19 22 26 28 32
1 3 10 13 14 15 18 33 37
3 11 15 29 35 66
2 4 5 8 10 23 30 31 32 98
4 5 17 22 32 33
1 15 23 31 35 37 135
4 19 20 25 33 35 36 38 40
4 9 10 26 32 34 35 40
4 17 26 28 37
7 8 15 17 22 23 26 27 30 39
3 7 9 24 27 29 36 82 155
15 30 36 151
4 14 22 25 28 29 30 37 38
21 29 33 34 39 159
1 9 11 12 15 18 24 28 31 35 42
11 14 18 29 35 154 155
1 6 10 13 15 18 20 32 36 61 134
4 5 10 12 14 29 30 44 49 82 137 151
44 58 66 76 80 152
37 58 69 71 77 79 80 131
54 55 63 64 70 73 75 76 79 83 126
40 41 48 60 66
46 56 57 59 65
45 48 62 72 73 77
6 17 57 62 65 67 68 129 146
44 46 49 52 55 62 64 67
9 40 48 57 60 75 77 79 119
58 63 74 78
52 57 58 60 61 76 90 121
48 51 53 68 78
52 54 64 65 69 71 73 78 101 138
43 53 55 57 65 124
43 48 54 57 58 75 77 78 122
45 77 93 115 139
45 47 49 51 54 55 59 60 61 62 64 66 74 77
19 41 42 50 51 55 66 69 80
11 45 57 60 71 74 133 147
44 49 51 57 59 72 126
39 51 57 62 64 76 79 97
46 47 48 57 61 63 70 72 73 80
43 50 62 73 75 76 80 102
43 48 53 57 61 65 75 76 80
12 45 47 53 54 64 72 79
25 41 44 57 58 73 76 77 78
47 48 71 72 75
47 52 72
42 53 58 77 78 84 118 124
43 62 139 149 157
42 53 59 67 75 77 138
17 46 60 62 65 67 68 76
43 46 53 62 63 66 110
50 57 59 75 77 116 126
43 49 55 63 64 67 71 74 80 158
4 41 43 51 61 63 64 66 72
42 46 49 55 56 57 66 69 71 74 89
3 50 52 53 55 66 69 121
42 43 49 61 65 160
41 42 58 62 63 64 75
85 86 93 96 105 116 118 119
2 33 40 83 106 112 119 148
1 43 82 85 90 91 107 118 119
69 95 96 97 113 139
81 83 91 100 101 104 107 116 144
81 88 89 97 100 109 117 120 125
89 99 101 112 126
86 97 101 108 111 113 149
77 86 87 93 98 100 103 108 116 118 151
14 51 83 92 97 99 100 101 103 105 112 114
83 85 96 118
90 94 97 101 102 105 110 111 116 118
56 81 89 96 102 104 107 110 118
92 101 105 108 110 119 120
84 110 150
12 81 84 91 93 97 99 111 113 115 145
61 84 86 88 90 92 96 100 113
5 14 26 89 99 117
87 90 96 98 104 110 111 120 149
85 86 89 90 97 103 104 109 126
53 85 87 88 90 92 94 102 103 104 109 113 114 157
2 63 92 93 101 107 108 110 113 114 115 116 143
89 90 100 101 104 108 111 116 121
85 93 99 100 101 103 111 118 159
81 90 92 94 106 108 129 159
82 105 112 113 138
83 85 93 102 109 114 148
88 89 94 102 103 105 113 120 157
3 86 100 101 107
11 73 92 93 94 95 99 102 112 114 115
11 20 88 92 96 99 103 104 147 156
82 87 90 106 110 113 116 118
84 88 96 97 101 102 106 108 112 117 140
90 101 102 107 110 115 119
56 96 102 110 114 119
74 81 85 89 92 102 103 112
18 86 98 113 119
69 81 83 89 91 92 93 104 112
49 81 82 83 94 114 115 117 141 150
3 86 94 99 108
51 78 103 123 126 127 132 138 145 147 150 156
55 131 132 142 145 155 160
121 145 151 154 156
54 69 130 133 142 146 147 149 150 153
86 132 137 142 145 156
43 60 74 87 100 121 136 141 142 143 145 147 155 160
121 133 139 146 147
138 145 147 148 156
47 105 136 138 142 146 153 158
124 134 143 144 160
42 122 135 149 153 159
121 122 125 139 140 141 148 151 152 153 159 160
59 124 127 137 149 150 156
39 130 140 143 151 152 153 157
21 28 131 144 152
126 129 137 151 156
19 40 125 133 136 140 148 152 158 159
53 71 106 121 128 129 147
7 56 70 84 127 132 144 154
113 132 134 137 148 155
119 126 132 142 145 153
122 124 125 126 129 141 146 159
102 126 130 134 146 147 151
21 85 130 135 139 150 158
96 121 122 123 125 126 128 141
47 124 127 129 142 143 152 157 159 160
59 111 121 124 126 127 128 138 143 154 155 156 157
15 82 107 128 132 137 140 157 159
70 88 99 124 131 133 150 156
11 95 119 121 124 133 144 149 154
34 40 89 123 132 134 136 143 157 158
41 132 134 135 137 146 153
124 129 131 132 134 141 152 159
17 38 123 139 147 150
33 38 122 126 140 147 160
10 111 121 123 125 128 133 136 147 149
70 101 108 134 146 147 148 151 158
10 75 129 137 144 151 157
36 104 105 131 132 137 142 146 148 153
11 79 122 126 130 132 146 155
