280 1162
4 5 13 20 29 32 33 37 43 93 108
5 21 24 26 36 57 244 249
4 11 16 30 43
1 3 8 35 38 41 99 200
1 2 11 12 17 20 26 31 43 257
11 14 17 20 21 26 36 42 208
9 21 24 27 28 38 45 178
4 9 13 17 29 47 108 173
7 8 15 21 43 45 46 228
23 27 29 31 32 33 34 37 40 43 46
3 5 6 13 23 25 28 29 37 43 93
5 15 20 24 31 47
1 8 11 14 22 41 42 47 227 230
6 13 15 25 33 149 187 254
9 12 14 16 24 26 30 36 37 38 44 45 47 88 224
3 15 40 42 158 244
5 6 8 20 22 23 25 26 28 34 149 156
20 26 31 35 36 40 44 63 204
22 27 46
1 5 6 12 17 18 22 27 30 35 40 42 47 95 96 276
2 6 7 9 32 35 42 220
13 17 19 20 24 26 28 44 91 200
10 11 17 37 40 41 46 194
2 7 12 15 22 27
11 14 17 36 77 99 111
2 5 6 15 17 18 22 28 33 38 177
7 10 19 20 24 28 33 224
7 11 17 22 26 27 31 260
1 8 10 11 34 38 48 154 237
3 15 20 33 36 39
5 10 12 18 28 36 43 274
1 10 21 55
1 10 14 26 27 30 37 42 44 245
10 17 29 36 43 105
4 18 20 21
2 6 15 18 25 30 31 34 39 79 121
1 10 11 15 23 33 39 47 84 104
4 7 15 26 29 248
30 36 37 114 205
10 16 18 20 23 41 42
4 13 23 40 91
6 13 16 20 21 33 40 45 169
1 3 5 9 10 11 31 34 46 136
15 18 22 33
7 9 15 42 53
9 10 19 23 43 279
8 12 13 15 20 37
29 53 55 62 71 77 79 83 84 91
65 76 78 210
55 56 57 68 71 89
58 70 71 76 83 87 90 91 215
55 56 71 78 80 81 86 206
45 48 54 60 61 64 67 69 72 82 86 87 90
53 55 64 70 84 89 94
32 48 50 52 54 71 75 76 78 83 85 89
50 52 62 80 84 85 89 93 180
2 50 58 73 77 80 93
51 57 59 61 64 84 85 87 92 93
58 62 84 89 148
53 62 67 70 74 77
53 58 62 70 81 84 170
48 56 59 60 61 70 73 78
18 69 71 78 82 192
53 54 58 68 71 76 78 82 85 88
49 67 71 72 74 79 82
76 87 88 139 233 250
53 60 65 78 81 93 94
50 64 71 85 89 91 241
53 63 71 74 79 89 108 190
51 54 60 61 62 72 74 77 78 193
48 50 51 52 55 63 64 65 68 69 85 248
53 65 70 75 79 80 83 94 220
57 62 74 76 80 90 91 197
60 65 69 70 73 86 88 96 155 271
55 72 76 78 83
49 51 55 64 66 73 75 87 141 206 220 238 251 272
25 48 57 60 70 89 184
49 52 55 62 63 64 67 70 75 81 85 90 160
36 48 65 69 72 93 94
52 56 57 72 73 94 106 114
52 61 67 78 90 91 100 114 210
53 63 64 65 84 85 94
48 51 55 72 75 91 92
37 48 54 56 58 59 61 82 190 280
55 56 58 64 68 71 78 82 253
52 53 74 88 90 94 274
51 53 58 66 76
15 64 66 74 86
50 54 55 56 59 68 69 77 91
51 53 73 78 81 86 92 155
22 41 48 51 68 73 81 83 89
58 83 90 93
1 11 56 57 58 67 79 92 94
54 67 72 79 80 82 86 93 119 168
20 107 136 208
20 74 101 118 126 138 187
99 100 106 111 112 122 124 137 139 212
101 117 121 131 134 136 140 216
4 25 97 101 105 123 124 126 129 134 280
81 97 103 134
96 98 99 107 119 125 128 129 131 134
103 120 124 125 126 130 133 141
100 102 109 115 125 136 137 139 146
37 108 110 112 119 138 179
34 99 107 113 119 120 125 126 128 129 131 133 136 143
80 97 108 110 115 118 141
95 101 105 108 111 113 121 140 152
1 8 69 104 106 107 128 130 136 139
103 129 131 136 137 240
104 106 114 115 118 123 124 125 129 137 243 270
25 97 107 112 117 125 159 276
97 104 111 115 117 126 130
105 107 118 120 125 126 128 129 134 137 175 244 280
39 80 81 110 116 117 120 122 132 136
103 106 110 112 117 121 125 132 187
114 118 124 126 127 138
98 111 112 114 115 119 131 134 198
96 106 110 113 116 131 132 141 244
94 101 104 105 117 128 129 130 135 147 241
102 105 113 114 126 131 134 137
36 98 107 115 131 134 136
97 114 126 136 137
99 110 126 133 139
97 99 102 110 116 130 132 133 136 139 280
101 102 103 105 110 111 113 115 129 136
96 99 102 105 112 113 116 120 122 123 130 139 272
116 129 136 269
101 105 108 113 119 131 136
99 101 105 109 110 113 119 125 127 130 131 132 137 138 148 272
102 108 112 119 124 126 129 132 188 267
98 101 105 109 117 118 120 121 128 129 180
114 115 118 124 129 130 140 141 179 224
102 105 123 124
98 99 100 101 113 117 120 121
119 137 140
43 95 98 103 105 108 109 114 121 122 124 125 127 128 138 139
97 103 109 110 113 120 122 129 135
96 104 116 129 136 167 187
66 97 103 108 123 124 126 136
98 107 132 135 142
76 102 106 118 132 255
140 143 146 153 162 166 172 174 188
105 142 159 160 161 166 171 174 175 177 180
146 152 160 166 171 176 178 179 180 181 185 187 245
146 152 166 172 173 176 177 188 271
103 142 144 145 175 178 179 182
119 149 157 158 161 164 175 215 245 275
59 129 153 155 161 163 176 178 183
14 17 147 156 157 158 166 175 184
157 167 168 169 177 181 266
162 166 176 180
107 144 145 155 156 176 180 181 185
142 148 155 156 162 170 176 178 182 184 187 220 250
29 158 160 169 171
74 90 148 152 153 171 179 182 187
17 149 152 153 166 168 172 181 184
147 149 150 158 162 172 178
16 147 149 154 157 160 162 180 272
111 143 162 171 177 180 181 188 229
78 143 144 154 158 168 171 182 183
143 147 148 162 165 170 179 183 187
142 151 153 157 158 159 161 166 264
148 173 174 181
147 173 180 182 280
161 174 177 178 185
142 143 144 145 149 151 156 162 172 177 183 187 213
138 150 168 171 179 258
94 150 156 160 167 177 186
42 150 154 188 223
61 153 161 181 183
143 144 154 155 159 160 167 179 182 183 188
142 145 156 157 166 180 196
8 145 163 164 195
142 143 163 165 176 177 180 182
113 143 146 147 149 180
144 145 148 151 152 153 174 186
26 143 145 150 159 165 166 168 174 179 180
7 144 146 148 153 157 165 187
104 132 144 146 155 161 167 171 177 225 228
56 131 143 144 151 152 158 159 164 172 174 175 177 210
144 150 152 156 159 163 170 182
146 153 155 160 164 171 174 181 251
148 160 161 166 170 171 186
77 149 153 156 188 201
144 152 165 187 193 243
168 176 183
14 96 115 138 144 153 155 161 166 178 185
130 142 145 159 169 171 184
192 197 201 203 212 223 225
69 84 198 201 203 204 216 224 225 226 228
196 201 202 211 217 225 227 234
63 189 194 199 211 212 220 222 224 268
70 185 195 197 203 207 212 220 229 264
23 192 199 202 205 207 211
173 193 210 215 221 222 225 233
172 191 204 206 209 215 216 225 227 229 231
73 189 193 199 206 207 208 209 212 215 272
117 190 200 201 210 211 212 218 219 227 230
192 194 197 205 212 214 215 216 227 228 232
4 22 198 214 226 233
184 189 190 191 198 211 219 220 223 226
191 194 209 212 214 216 232 257
189 190 193 206 208 215 221 226 228
18 190 196 209 217 253
39 194 199 206 212 217 221
52 76 196 197 203 205 207 210 212 217 218 221 226 229 230
193 194 197 206 213 216 218 222 224 227 228 230
6 95 197 203 210 217 218 232
196 197 202 204 213 215 218 230
49 81 180 195 198 206 208 215 217 218 221 234 277
191 192 194 198 201 217 221 222
97 189 192 193 197 198 199 202 205 206 216 218 223
166 207 209
199 200 202 220 231
51 147 195 196 197 199 203 209 210 221 273
98 190 196 199 202 207 212 223 230
191 204 205 206 208 210 211 218 221 222 228
198 206 207 208 209 210 212 217 223 233 258
198 201 221 228 229
21 72 76 153 192 193 201 214
195 203 205 206 210 211 215 217 219 222 228 234 235
192 195 207 211 217 221 224 228 276
169 189 201 212 216 218 225 228
15 27 132 190 192 207 222 229 231
179 189 190 191 195 196 223 226 227 229 231
190 200 201 203 206 225
13 191 196 198 199 207 225 231 233
9 179 190 199 203 207 217 219 221 222 223 229
159 193 196 206 219 224 225 228
13 198 206 207 209 216
196 214 224 225 227
199 202 208
66 195 200 218 227
191 210 221 269
221 244 249 251 255 262 271
242 246 249 250 252 253 262 269 276 278 279
29 238 239 241 244 247 250 251 258 260 262 277 279
76 237 243 245 252 255 259 260 268 274 277
237 243 256 260 270 271 275 279
109 247 262 263 268 269 274
68 119 237 251 252 256 261 271 274
236 244 245 255 261 263 270 277 278 279 280
110 185 238 239 255 276
2 16 113 118 235 237 242 257 265 269 277
33 144 147 238 242 250 266
236 265 266 278 279
237 240 254 261 271 272 274 276
38 71 251 268 280
2 235 236 251 259 265 270
66 153 236 237 245 251 257 268 270 272 278
76 182 235 237 241 248 249 250 252 271
236 238 241 251 267 268 274 278
85 204 236 270 272 275 279
14 247 262 263 270 278
141 235 238 242 243 258 269 272 278
239 241 270 274 275 277
5 202 244 250 267 268 271 273 279
167 218 237 255 263 268 277
238 249 261 276
28 237 238 239 270 272
241 242 247 259 264 265
235 236 237 240 254 263 265 276
240 242 254 258 262 266
162 193 261 280
244 246 249 261 262 269 271 273 274 275 277 280
150 245 246 263 280
130 252 257 269 274 277
192 238 240 248 250 252 257 258 269 273
127 234 236 240 244 255 265 267 268
110 239 242 249 250 253 254 256 260 274
74 145 235 239 241 247 251 257 265 274 280
76 126 129 158 197 247 250 253 255 260 273
215 257 265 268 272 275
31 86 238 240 241 247 252 256 265 267 270 271 276
147 239 253 256 265 273 277 278
20 111 222 236 243 247 259 262 274
210 237 238 242 244 256 258 265 267 275
236 242 246 250 252 254 255 275
46 236 237 239 242 246 253 257
84 99 113 124 164 242 248 264 265 266 271
