0 3
0 4
0 12
0 19
0 28
0 31
0 32
0 36
0 42
0 92
0 107
1 4
1 20
1 23
1 25
1 35
1 56
1 243
1 248
2 3
2 10
2 15
2 29
2 42
3 7
3 34
3 37
3 40
3 98
3 199
4 10
4 11
4 16
4 19
4 25
4 30
4 42
4 256
5 10
5 13
5 16
5 19
5 20
5 25
5 35
5 41
5 207
6 8
6 20
6 23
6 26
6 27
6 37
6 44
6 177
7 8
7 12
7 16
7 28
7 46
7 107
7 172
8 14
8 20
8 42
8 44
8 45
8 227
9 22
9 26
9 28
9 30
9 31
9 32
9 33
9 36
9 39
9 42
9 45
10 12
10 22
10 24
10 27
10 28
10 36
10 42
10 92
11 14
11 19
11 23
11 30
11 46
12 13
12 21
12 40
12 41
12 46
12 226
12 229
13 14
13 24
13 32
13 148
13 186
13 253
14 15
14 23
14 25
14 29
14 35
14 36
14 37
14 43
14 44
14 46
14 87
14 223
15 39
15 41
15 157
15 243
16 19
16 21
16 22
16 24
16 25
16 27
16 33
16 148
16 155
17 19
17 25
17 30
17 34
17 35
17 39
17 43
17 62
17 203
18 21
18 26
18 45
19 21
19 26
19 29
19 34
19 39
19 41
19 46
19 94
19 95
19 275
20 31
20 34
20 41
20 219
21 23
21 25
21 27
21 43
21 90
21 199
22 36
22 39
22 40
22 45
22 193
23 26
24 35
24 76
24 98
24 110
25 27
25 32
25 37
25 176
26 27
26 32
26 223
27 30
27 259
28 33
28 37
28 47
28 153
28 236
29 32
29 35
29 38
30 35
30 42
30 273
31 54
32 36
32 41
32 43
32 244
33 35
33 42
33 104
35 38
35 78
35 120
36 38
36 46
36 83
36 103
37 247
38 113
38 204
39 40
39 41
40 90
41 44
41 168
42 45
42 135
44 52
45 278
47 52
47 54
47 61
47 70
47 76
47 78
47 82
47 83
47 90
48 64
48 75
48 77
48 209
49 54
49 55
49 56
49 67
49 70
49 88
50 57
50 69
50 70
50 75
50 82
50 86
50 89
50 90
50 214
51 54
51 55
51 70
51 77
51 79
51 80
51 85
51 205
52 53
52 59
52 60
52 63
52 66
52 68
52 71
52 81
52 85
52 86
52 89
53 54
53 63
53 69
53 83
53 88
53 93
54 70
54 74
54 75
54 77
54 82
54 84
54 88
55 61
55 79
55 83
55 84
55 88
55 92
55 179
56 57
56 72
56 76
56 79
56 92
57 58
57 60
57 63
57 83
57 84
57 86
57 91
57 92
58 61
58 83
58 88
58 147
59 61
59 66
59 69
59 73
59 76
60 61
60 69
60 80
60 83
60 169
61 69
61 72
61 77
62 68
62 70
62 77
62 81
62 191
63 67
63 70
63 75
63 77
63 81
63 84
63 87
64 66
64 70
64 71
64 73
64 78
64 81
65 75
65 86
65 87
65 138
65 232
65 249
66 77
66 80
66 92
66 93
67 70
67 84
67 88
67 90
67 240
68 70
68 73
68 78
68 88
68 107
68 189
69 71
69 73
69 76
69 77
69 192
70 84
70 247
71 74
71 78
71 79
71 82
71 93
71 219
72 73
72 75
72 79
72 89
72 90
72 196
73 85
73 87
73 95
73 154
73 270
74 75
74 77
74 82
75 86
75 140
75 205
75 219
75 237
75 250
75 271
76 88
76 183
77 80
77 84
77 89
77 159
78 92
78 93
79 93
79 105
79 113
80 89
80 90
80 99
80 113
80 209
81 83
81 84
81 93
82 90
82 91
83 189
83 279
84 252
85 87
85 89
85 93
85 273
88 90
89 91
89 154
91 92
92 93
93 118
93 167
94 106
94 135
94 207
95 100
95 117
95 125
95 137
95 186
96 98
96 99
96 105
96 110
96 111
96 121
96 123
96 136
96 138
96 211
97 100
97 116
97 120
97 130
97 133
97 135
97 139
97 215
98 100
98 104
98 122
98 123
98 125
98 128
98 133
98 279
99 102
99 133
100 106
100 118
100 124
100 127
100 128
100 130
100 133
101 102
101 119
101 123
101 124
101 125
101 129
101 132
101 140
102 108
102 114
102 124
102 135
102 136
102 138
102 145
103 107
103 109
103 111
103 118
103 137
103 178
104 106
104 112
104 118
104 119
104 124
104 125
104 127
104 128
104 130
104 132
104 135
104 142
105 107
105 109
105 114
105 117
105 140
106 107
106 110
106 112
106 120
106 139
106 151
107 127
107 129
107 135
107 138
108 128
108 130
108 135
108 136
108 239
109 113
109 114
109 117
109 122
109 123
109 124
109 128
109 136
109 242
109 269
110 111
110 116
110 124
110 158
110 275
111 114
111 116
111 125
111 129
112 117
112 119
112 124
112 125
112 127
112 128
112 133
112 136
112 174
112 243
112 279
113 115
113 116
113 119
113 121
113 131
113 135
114 116
114 120
114 124
114 131
114 186
115 117
115 123
115 125
115 126
115 137
116 118
116 130
116 133
116 197
117 130
117 131
117 140
117 243
118 127
118 128
118 129
118 134
118 146
118 240
119 125
119 130
119 133
119 136
120 130
120 133
120 135
121 125
121 135
121 136
122 125
122 132
122 138
123 129
123 131
123 132
123 135
123 138
123 279
124 128
124 135
125 129
125 138
125 271
126 128
126 135
126 268
127 130
127 135
128 129
128 130
128 131
128 136
128 137
128 147
128 271
129 131
129 187
129 266
130 179
131 139
131 140
131 178
131 223
134 136
134 139
135 137
135 138
137 166
137 186
139 141
140 254
141 142
141 145
141 152
141 161
141 165
141 171
141 173
141 187
142 158
142 159
142 160
142 165
142 170
142 173
142 174
142 176
142 179
143 145
143 151
143 159
143 165
143 170
143 175
143 177
143 178
143 179
143 180
143 184
143 186
143 244
144 145
144 151
144 165
144 171
144 172
144 175
144 176
144 187
144 270
145 174
145 177
145 178
145 181
146 148
146 156
146 157
146 160
146 163
146 174
146 214
146 244
146 274
147 152
147 154
147 160
147 162
147 175
147 177
147 182
148 155
148 156
148 157
148 165
148 174
148 183
149 156
149 166
149 167
149 168
149 176
149 180
149 265
150 161
150 165
150 175
150 179
151 154
151 155
151 175
151 179
151 180
151 184
152 154
152 155
152 161
152 169
152 175
152 177
152 181
152 183
152 186
152 219
152 249
153 157
153 159
153 168
153 170
154 170
154 178
154 181
154 186
155 165
155 167
155 171
155 180
155 183
156 157
156 161
156 171
156 177
157 159
157 161
157 179
157 271
158 161
158 170
158 176
158 179
158 180
158 187
158 228
159 167
159 170
159 181
159 182
160 161
160 164
160 169
160 178
160 182
160 186
161 165
161 263
162 172
162 173
162 180
163 172
163 179
163 181
163 279
164 173
164 176
164 177
164 184
165 171
165 176
165 182
165 186
165 212
166 167
166 170
166 178
166 257
167 176
167 185
168 187
168 222
169 180
169 182
170 178
170 181
170 182
170 187
171 179
171 195
172 194
173 175
173 176
173 179
173 181
174 179
175 185
176 178
176 179
177 186
178 224
178 227
179 209
180 181
181 250
182 185
183 187
183 200
184 186
184 192
184 242
188 191
188 196
188 200
188 202
188 211
188 222
188 224
189 197
189 200
189 202
189 203
189 215
189 223
189 224
189 225
189 227
190 195
190 200
190 201
190 210
190 216
190 224
190 226
190 233
191 193
191 198
191 210
191 211
191 219
191 221
191 223
191 267
192 194
192 196
192 202
192 206
192 211
192 219
192 228
192 263
193 198
193 201
193 204
193 206
193 210
194 209
194 214
194 220
194 221
194 224
194 232
195 203
195 205
195 208
195 214
195 215
195 224
195 226
195 228
195 230
196 198
196 205
196 206
196 207
196 208
196 211
196 214
196 271
197 199
197 200
197 209
197 210
197 211
197 217
197 218
197 226
197 229
198 204
198 211
198 213
198 214
198 215
198 226
198 227
198 231
199 213
199 225
199 232
200 210
200 218
200 219
200 222
200 225
201 208
201 211
201 213
201 215
201 231
201 256
202 205
202 207
202 214
202 220
202 225
202 227
203 208
203 216
203 252
204 205
204 211
204 216
204 220
205 206
205 209
205 211
205 216
205 217
205 220
205 225
205 228
205 229
206 212
206 215
206 217
206 221
206 223
206 226
206 227
206 229
207 209
207 216
207 217
207 231
208 212
208 214
208 217
208 229
209 214
209 216
209 217
209 220
209 233
209 276
210 216
210 220
210 221
211 215
211 217
211 222
213 219
213 230
214 220
214 272
215 222
215 229
216 217
216 220
216 221
216 227
217 222
217 232
217 257
218 220
218 227
218 228
220 221
220 227
220 233
220 234
221 223
221 227
221 275
222 224
222 227
223 228
223 230
224 225
224 226
224 228
224 230
226 230
226 232
227 228
233 268
234 243
234 248
234 250
234 254
234 261
234 270
235 241
235 245
235 248
235 249
235 251
235 252
235 261
235 268
235 275
235 277
235 278
236 237
236 238
236 240
236 243
236 246
236 249
236 250
236 257
236 259
236 261
236 276
236 278
237 242
237 244
237 251
237 254
237 258
237 259
237 267
237 273
237 276
238 242
238 255
238 259
238 269
238 270
238 274
238 278
239 246
239 261
239 262
239 267
239 268
239 273
240 250
240 251
240 255
240 260
240 270
240 273
241 243
241 244
241 254
241 260
241 262
241 269
241 276
241 277
241 278
241 279
242 254
242 275
243 256
243 264
243 268
243 276
244 249
244 265
245 264
245 265
245 277
245 278
246 253
246 260
246 270
246 271
246 273
246 275
247 250
247 267
247 279
248 250
248 258
248 264
248 269
249 250
249 256
249 267
249 269
249 271
249 277
250 251
250 270
251 266
251 267
251 273
251 277
252 269
252 271
252 274
252 278
253 261
253 262
253 269
253 277
254 257
254 268
254 271
254 277
255 269
255 273
255 274
255 276
256 266
256 267
256 270
256 272
256 278
257 262
257 267
257 276
258 260
258 275
259 269
259 271
260 263
260 264
261 262
261 264
261 275
262 265
263 279
264 268
264 270
264 272
264 273
264 274
264 276
264 279
265 279
266 268
266 273
266 276
267 268
267 272
269 273
270 273
270 279
271 272
272 274
273 275
274 276
274 277
