315 1745
8 11 19 168 296
7 187
5 7 10 12 14
7 9 170 214 293
3 6 15 215 259
5 9 10 12
2 3 4 238
1 11 16 18 278
4 6 11 15
3 6 18 20 48 183 269
1 8 9 16 102 179
3 6 19 20
78 99 163
3
5 9 17 45 260
8 11 20 73 112 223
15 98 133
8 10
1 12 25 125
10 12 16 223
30 32 33 34 45 148
27 33 43 287
26 30 33 44 45
26 32 33 35 41 235 286 314
19 35 43 98
23 24 28 38 45 256
22 43 211
26 34 35 38 42 241 249
31 33 38
21 23 33 34 39 40 44 126 288
29 33 94
21 24 36 44
21 22 23 24 29 30 31 37 39 40 43 44 176 191
21 28 30 38 42 43 118
24 25 28 38 40
32 40 236 284
33 38 39 42 247 268
26 28 29 34 35 37
30 33 37 252
30 33 35 36
24 42
28 34 37 41 57 69 101
22 25 27 33 34 45
23 30 32 33 45
15 21 23 26 43 44 80 188
50 54 57 63
189 312
10 53 60 62 65 67 73 218
54 65 238
46 54 57 58 69 74 105 127
56 58 66 67 68 217 247 294
53 55 67 71 73 244 268
48 52 65 67 72 122
46 49 50 56 71 73 76 272
52 57 64 68 70 72 119 147
51 54 61 64 66 67 72
42 46 50 55 74 76
50 51 59 61 64 182
58 63 69 70 71 72 103 228
48 68 70
56 58 62 63 64 67 68 72 200
48 61 72 75
46 59 61 70 74 75 106 217 253
55 56 58 61 74 75 79 199
48 49 53 70 74 75 231 254
51 56 71 111
48 51 52 53 56 61 75 121
51 55 60 61
42 50 59 70 119
55 59 60 63 65 69 174
52 54 59 66 75
53 55 56 59 61 62 74 93
16 48 52 54 74 75 280 310
50 57 63 64 65 72 73 226 257 310
62 63 64 65 67 71 73
54 57 172 231
82 86 91 96 100 107 108 110
13 86 88 91 93 95 99 103 105 106
64 80 81 86 94 98 101 110 112 116
45 79 85 88 97 109 114
79 84 88 95 101 111 185
77 83 86 95 96 102 105 111
82 85 86 89 90 94 99 100 105 174 302
81 89 92 98 104 115 116 180
80 83 88 92 99 100 111
77 78 79 82 83 91 94 96 116 207 308
92 93 95 98 100 107 221
78 80 81 85 96 102 106 253
83 84 96 98 102 106
83 91 92 95 102 103 109 110 143 269
77 78 86 90 92 95 103 106 107 114 115 120 302
84 85 87 90 91 103 107 114
72 78 87 102 151 219
31 79 83 86 104 114 177 291
78 81 82 87 90 91 102
77 82 86 88 89 100 105 107 110 111 112 114 203
80 105
17 25 79 84 87 89 99 109 111 143 310
13 78 83 85 98 311
77 83 85 87 96 106 115 127
42 79 81 104 113 221
11 82 88 89 90 93 95 107 108 114
59 78 90 91 92 107 112 114
84 94 101 108 110 113 114
50 78 82 83 96 97 107
63 78 88 89 91 100 112 116
77 87 91 92 96 102 103 105 110 111 115 116 177
77 102 104 114
80 90 98 143 295 302
77 79 90 96 104 107 112
66 81 82 85 96 98 107 114 119
16 79 96 103 106 110 113 114
101 104 112 114 116
80 91 92 94 96 102 103 104 108 111 112 113
84 91 100 107 117 172
79 84 86 106 107 113
115 123 124 134 138 139 148 153 158 162 164 165 166 167
34 123 124 129 131 132 133 136 137 138 146 154 155 156 160 167 308
55 69 111 121 128 134 135 150 158 159 162 173
91 122 128 131 140 145 152 153 154 155 159 162
67 119 129 130 141 147 158 160 161 166 310
53 120 126 139 143 146 152 153 157 162 173 270
117 118 128 151 155 160
117 118 139 143 151 157 163 214 254
19 128 136 138 139 142 144 145 146 148 151 166 216
30 122 130 139 143 147 151 153 155 159 164 167 293
50 100 129 130 138 152 155 159 174
119 120 123 125 129 136 137 148 149 287
118 121 127 128 132 135 141 150 151 156 296
121 126 127 131 141 145 153
118 120 130 132 137 141 143 151 163 165 166 167
118 129 131 135 136 137 152
17 118 141 143 144 146 148 149 150 153 158 163
117 119 147 162 167 211 263
119 129 132 139 151 165
118 125 128 132 150 155 160 166
118 128 131 132 142 150 151 153 155 209
117 118 125 127 145 151 244
117 122 124 125 126 135 153 156 157 159 163
120 142 156 159
121 129 130 131 133 161
125 137 140 144 146 154 166
90 98 109 122 124 126 131 133 147 161 247
125 133 142 150 158 159 163 216
120 125 130 138 154 204
118 122 125 133 142 153 154
55 121 126 134 143 148 149 151
21 117 125 128 133 147 151 164
128 133 147 155 160
119 129 133 136 137 144 154 155 156 160 162 164 165 167 202
93 123 124 125 126 129 131 135 137 138 147 148 157 161 270
120 122 127 132 157 159 163 189 311
117 120 122 126 130 133 137 139 146 155 157 165 166
118 120 142 145 146 150 160 165 166
118 120 123 126 127 136 137 149 150 153 162 173
118 129 139 140 150 164 165 253
122 124 139 151 152 153 182 280
117 119 121 133 144 159 162 186
119 120 126 127 139 140 144 152 158 164 253
118 121 123 136 149 150 154 164
121 141 143 151 162 163 165 167 193
117 119 120 122 134 150 155 158 161 175
13 124 131 133 139 144 152 161 165 166 167
117 126 148 150 156 159 160 166 167
117 131 135 150 153 154 156 161 163 276
117 121 125 131 136 142 153 154 163 164
117 118 126 131 134 150 161 163 164 197
1 169 172 180 182 183 184 195 214 217 219 224 264 301
168 171 173 181 182 189 195 198 203 205 219
4 181 189 190 200 203 218
169 173 175 179 196 202 210 212 215 219 221 222 224 227
76 115 168 175 182 186 199 202 206 211 223 227 232
119 122 155 169 171 174 177 181 189 191 192 195 210 219 221 229
70 83 127 173 176 179 185 189 190 195 196 201 202 203 212 216 220 226 274
162 171 172 177 190 192 206 207 210 216 219 220 221 225 226 228 230 231 232
33 174 186 188 200 202 206 208 211 214 220 227
94 107 173 175 189 192 193 200 206 210 217 224 298
184 186 188 201 212
11 171 174 180 194 199 208 210 211 224 227 230
84 168 179 198 204 205 208 211 214 215 216 225 228 230
169 170 173 183 189 193 196 198 206 220 221 222 225 226 228
58 157 168 169 172 187 191 194 197 198 199 210 213 215 221 227 228 249
10 168 181 192 200 203 206 207 215 218 223
168 178 185 187 191 197 198 200 206 214 221 222 225
81 174 184 191 192 201 203 207 208 214 215 217 223
158 172 176 178 198 202 205 206 211 213 217 220 221 224 227 228
2 182 184 190 196 203 205 212 220 222 223 226 227 232
45 176 178 198 202 210 218 219 226 228 268
47 152 169 170 173 174 177 181 198 200 209 231 292
170 174 175 187 199 211 218 219 224 230
33 173 182 184 185 200 202 213 221 222 287
173 175 177 183 185 193 196 197 204 214 221 223 224 230
161 177 181 192 198 206 209 216 221 225 226 300 303
179 182 200 201 204 205 212 215 224 228 230
168 169 173 174 197 199 208 213 214
171 174 181 187 192 201 203 204 207 215 219 222 223
167 182 184 192 195 208 213 214 220 225 226 236 272
169 180 181 182 184 186 188 189 193 200 205 208 212 213 214 220 222 224 230 257
64 172 179 182 190 195 201 205 207 208 211 214 224 225
61 170 176 177 183 184 189 191 194 198 202 203 204 208 209 217 230
174 178 185 194 196 199 208 214 218 221 222 229 232
150 171 172 174 176 186 188 191 200 203 205 208 209 223
96 169 170 174 183 185 187 196 200 202
145 180 192 194 196 200 207 209 210 218 221 231 235
169 180 186 187 194 198 199 202 214 216 225
172 175 176 177 181 183 184 186 193 209 215 217 220 230 231 232
86 175 183 185 196 199 204 208 211 214 227
176 179 180 185 195 197 198 199 200 201 202 207 213 217 221 223 224 228 234
137 189 193 200 202 204 206 212 214 216 225 231
171 173 175 177 179 182 188 204 211 219 220 224
27 134 172 176 179 180 186 190 199 207 210 213 214 224 228
171 174 178 187 194 198 209 213 214 220 221 222 224 226 227 228 231
182 186 191 195 197 198 208 211 212 229 230 232
4 124 168 176 180 184 185 192 195 197 198 199 201 205 207 209 211 212 216 218 227 231 250
5 171 180 182 183 185 194 196 206 225 232 270
125 144 174 175 180 193 205 209 214 219 224 277
51 63 168 177 185 186 200 206 208 223 225 230 237 280 303
48 170 183 188 190 201 204 214 220 226 230 241 256 274
93 168 169 171 173 175 188 190 196 210 216 223 224
174 175 176 181 186 187 197 198 206 210 212 218 222 226 227 228 229 231
87 101 171 173 175 181 182 184 186 191 192 193 201 204 208 212 222 223 224 229 276 292 309
171 181 184 187 191 196 198 201 212 220 221 223 232
16 20 172 183 185 187 192 196 202 208 217 219 221 222
168 171 177 179 186 190 192 194 198 199 208 210 211 212 216 219 221
175 180 181 184 193 197 199 205 209 215 217 226 227 228
74 174 175 181 187 188 193 197 212 218 220 225 227 229 232
171 172 176 179 182 186 187 207 212 214 220 225 226
59 175 180 181 182 186 188 194 208 211 212 220 225 230 232
173 201 213 220 221 226
175 179 180 190 192 194 198 200 206 213 217 218 228 231 313
65 76 175 189 204 206 209 212 214 220 230 232
172 175 187 201 206 213 215 222 226 228 231 297
240 243 247 253 254 257 265 267 269 276 293 295 297 300 311 314
208 235 244 247 252 255 261 267 271 272 277 279 284 289 292 305 310 314 315
24 204 234 238 258 262 268 270 286 287 288 293 306
36 197 238 239 245 248 249 250 255 261 265 274 275 276 282 287 289 305 306 307
217 247 249 253 257 264 265 282 288 301 312
7 49 235 236 241 243 260 274 275 290 291 295 303 305 309
236 247 250 251 253 254 255 275 284 292 300 305 308
233 249 251 262 267 281 283 285 303 305 312 313
28 218 238 247 248 253 263 264 267 269 270 273 280 290 292 297 298 304 309 310 311
243 246 247 250 255 259 263 273 277 282 287 288 290 296 304 306 307 311
233 238 242 250 251 254 273 277 278 281 285 290 296 297 298 300 302 303 310 315
52 138 234 249 250 256 262 266 269 270 274 290 292 301 306 309 312 314
236 246 250 263 266 273 280 299 300
242 245 251 253 259 260 269 275 285 300 306 311
37 51 143 233 234 237 239 241 242 249 251 253 265 268 271 291 292 296 298 300 305 311
236 241 250 255 264 266 274 275 279 285 294 304 308 315
28 182 236 237 240 244 247 250 253 254 259 260 275 279 287 292 293 298 299 302 309 311
214 236 239 242 243 244 245 248 249 251 254 261 266 267 269 271 277 278 283 284 285 287 289 293 308 309 312
239 240 243 246 247 250 258 269 270 273 280 288 290 292 293 308 315
39 234 253 257 265 266 268 271 275 286 289 291 298 311
63 88 156 159 233 237 239 241 246 247 249 252 256 263 266 270 272 274 275 284 289 301 304 306 310 311
65 124 233 239 243 249 250 255 259 266 281 291 296 300 305 306
234 236 239 242 248 254 261 266 277 282 283 288 297
26 218 244 253 259 263 264 273 274 279 290 308
74 198 233 237 252 258 264 266 268 269 270 277 280 281 284 285 292 306 307 309
235 251 257 261 262 270 273 288 302 306 308 314
5 242 246 249 254 256 261 271 273 286 289 291 299 301 307 312
15 238 246 249 261 270 274 280 292 296 298 301 305 306 308 315
234 236 250 255 258 259 260 264 270 274 275 276 279 281 286 288 293 300 302 307 308
235 240 244 258 270 276 279 281 287 294 295 306 308 311 313
134 241 242 245 253 256 271 272 273 277 279 282 284 286 287 290 292 298 301 304 306 314
168 237 241 248 256 257 261 270 288 299 304 310
233 236 237 247 252 277 279 281 285 293 296 301 311 315
244 245 248 250 252 253 254 255 257 267 269 277 278 280 283 284 287 288 293 295 304 313
233 234 240 241 250 266 269 278 280 286 291 297 305 308
37 52 188 235 247 252 257 269 270 278 286 287 292 295 296 300 308 310
10 90 233 241 244 246 250 251 257 266 267 268 273 279 280 282 284 289 295 303 310 315
122 151 215 235 241 244 251 253 257 258 260 261 262 264 268 273 274 275 279 282 284 285 291 300 314
234 247 250 252 259 263 272 279 294 300 301 302 305 314
54 197 234 253 263 271 275 280 281 289 302 305 307
241 242 243 245 251 256 258 259 263 269 270 277 278 287 291 300 305 315
174 218 236 238 244 248 253 256 260 261 270 282 285 290 296 315
236 238 239 246 248 249 252 253 261 270 272 277 292 303 307 310
165 221 233 236 261 262 282 286 293 295 298 304 307 311 313 315
216 234 242 243 250 255 257 263 265 266 273 275 288 297 298
8 243 250 266 267 268 273 284 285 288 306 315
234 248 249 256 261 262 263 265 269 270 271 295 299 306 309 311 312
73 157 217 241 245 251 257 260 266 267 269 272 282 286 289 292 293 300 307 311
240 243 254 257 261 262 265 272 286 288 290 293 294 296 297 306 314
236 237 242 255 263 269 270 274 276 280 283 286 295 298 302 304
240 250 255 266 282 287 291 293 294 295 297 302 306 307 315
36 234 239 250 253 257 263 266 269 270 278 288 289 301 307 312
240 243 246 248 250 257 265 270 274 278 288 289 299
24 235 252 259 261 263 267 268 276 280 281 282 289
22 128 191 235 236 242 249 250 262 263 266 268 273 283 289 292 298 310 312 315
30 235 237 242 251 255 258 261 264 266 277 278 281 284 285 292 297 299 302 303 305 307 308
234 236 250 252 253 259 269 272 280 284 285 286 287 290 296 297 303 307 311 314
238 241 242 243 244 251 256 263 274 281 289 296 302 306 311
94 238 247 252 254 259 267 270 273 283 296 297 298 309
189 221 234 239 241 244 247 249 251 257 260 263 268 275 280 287 288
4 126 233 235 249 250 251 261 265 266 276 280 281 283 298 306 311 313
51 248 262 271 281 283 314 315
109 233 238 262 266 268 269 276 279 282 283 301 309 310
1 129 242 243 247 254 260 265 268 274 281 289 290 291 310 311 313 314 315
232 233 241 243 255 267 277 281 283 288 289 291 299 307 310 313 315
177 241 243 247 249 252 260 263 276 277 282 287 291 293 299 311
245 249 259 264 279 285 288 297 298 301 303 309 312
193 233 239 243 245 246 247 254 261 268 270 271 273 280 301 302 306 311 314
168 237 244 253 259 260 263 265 271 284 295 299 300 309
83 91 109 243 249 258 261 271 272 282 283 288 290 300 307 308 310 314
193 217 238 240 243 269 275 288 289 299 309
241 242 248 253 263 264 266 276 282 310
234 236 238 239 240 247 254 260 267 271 272 273 288 306 308
235 236 242 244 246 253 254 257 258 260 262 263 278 279 281 283 290 293 300 305 309 310
236 242 257 259 261 272 275 276 280 283 284 288 289 297 302 311 315
86 118 239 248 250 251 256 258 260 261 262 267 268 288 302 305 315
221 238 241 244 249 250 257 279 291 295 299 301 303 306 313
73 74 98 121 234 241 243 253 264 268 269 275 287 295 296 297 302 304 306
99 152 233 241 242 246 247 249 252 253 262 265 276 279 280 289 290 293 296 298 300 307
47 237 240 244 250 259 279 284 287 299 313 315
230 240 262 266 276 293 296 297 309 312
24 233 234 244 258 263 270 271 281 289 294 296 300 302
234 243 248 251 260 265 269 273 274 276 278 283 287 294 296 297 307 308 312
