180 884
2 3 6 8 9 11 16 20 177
1 9 11 12 16 17 18 22 105
1 5 6 12 13 17 20
6 7 8 9 11 15 22
3 6 10 13 16 28 62 134
1 3 4 5 8 13 15 17 22 145 157
4 9 17 18 21
1 4 6 9 12 17 18
1 2 4 7 8 15 17
5 19 22 101 128 137
1 2 4 17 44 105
2 3 8 15 17 22
3 5 6 15 18 19 20 50 68 129 141
15 16 22
4 6 9 12 13 14 21 83 90
1 2 5 14 17
2 3 6 7 8 9 11 12 16 19 20
2 7 8 13 152
10 13 17 20 157 173
1 3 13 17 19
7 15 22
2 4 6 10 12 14 21 41 149
26 37 44 74
25 34 36 39 40 48 156
24 35 40 123 145
23 30 32
33 42
5 32 36 38 45 47 49
35
26 32 37 40 49 56 179
34 41 48 104
26 28 30 35 37 43 48 122 162
27 38 119
24 31 36 37 42 43 45 49
25 29 32 36 43 44 48 134
24 28 34 35 39 40 44 48 77
23 30 32 34 40 42 43 125
28 33 39 40 42 44 47 102
24 36 38 40 41 42 46 47
24 25 30 36 37 38 39 41 49
22 31 39 40 45 46 48 49
27 34 37 38 39 48 57
32 34 35 37 45 49 105 120
11 23 35 36 38 45 46
28 34 41 43 44 46 129
39 41 44 45 62
28 38 39
24 31 32 35 36 41 42
28 30 34 40 41 43 87 117 142
13 55 65 70 74 77 80 82 96
55 56 63 66 73 74 75 78 82 148
53 57 59 61 63 65 69 75 77 79
52 59 63 78 81 82
57 67 69 72 76 77 80 84 166
50 51 57 58 69 70 71 75 79 83
30 51 58 60 66 73 76 78 82 97
42 52 54 55 60 62 64 67 68 70 80
55 56 68 74 77 81
52 53 65 67 82 83
56 57 62 67 69 72 73 77 82
52 72 74
5 46 57 60 65 68 70 91 103
51 52 53 64 73 74 75 76 77 81 141 147
57 63 75 82
50 52 59 62 66 68 71 138
51 56 65 69 70 75 83 169
54 57 59 60 69 73 74 75 81 82
13 57 58 62 65 70 73
52 54 55 60 66 67 74 76 77 81 83
50 55 57 62 66 68 71 78 81
55 65 70 76 81
54 60 61 75 80 82 83
51 56 60 63 67 68 74 77 78 80 96
23 50 51 58 61 63 67 69 73
51 52 55 63 64 66 67 72 76 77 80 103
54 56 63 69 71 75 77 81
36 50 52 54 58 60 63 69 73 75 76 80 83
51 53 56 70 73 79 97 115 127
52 55 78 101 144
50 54 57 72 73 75 77
53 58 63 67 69 70 71 76 97 167 172
50 51 53 56 59 60 64 67 72
15 55 59 66 69 72 77 100
54 85 87 88 90 103 108 119 120 129
84 90 91 96 98 99 105 108 109 114 118 121 123 125 162
88 94 97 100 117 118 120 125 126 161
49 84 89 94 95 101 102 109 112 120 121 123 126
84 86 92 93 98 106 109 117
87 90 91 93 98 100 102 109 112 115 118 125 126 173
15 84 85 89 91 100 102 105 109 110 111 112 113 120 121 125 135 150
62 85 89 90 92 95 101 107 112
88 91 93 96 101 113 116 118 173
88 89 92 103 105 106 114 115 121 123 162
86 87 100 104 105 106 108 111 112 154
87 91 96 104 105 107 108 114 118 119 124 138 157
50 73 85 92 95 97 102 105 108 112 114 116 120 121 124 125
56 78 81 86 96 99 102 107 112 113 115 118 121 122 124 126 173
85 88 89 100 103 109 114 119 124 179
85 97 106 110 111 118 120 121 132
83 86 89 90 94 98 107 109 112 116 120
10 79 87 91 92 103 107 108 114 118 126
38 87 89 90 96 97 103 106 113 114 119 120
62 75 84 93 98 101 102 110 113
31 94 95 106 107 113 114 116 123 126
2 11 43 85 90 93 94 95 96 112 115 122
88 93 94 99 102 104 107 110 111 112 116 118 119 121 134
91 95 97 100 101 104 106 113 120 124 126
84 85 94 95 96 101 110 115 120 121 125 127 160 162
85 87 88 89 90 98 100 112 114 116 118 122 123 152
90 99 103 106 108 111 113 121 125 126
90 94 99 106 110 113
87 89 90 91 94 96 97 100 105 106 109 117 124
90 92 97 102 103 104 107 110 111 114 116
85 93 95 96 98 101 102 104 109 113 116 117 121 175
78 89 93 97 105 108 120 125
92 96 100 104 106 109 113 114 118 123
49 86 88 112 114 120 154
85 86 89 92 95 97 99 101 106 109 116 119 120 121 123 166
33 84 95 98 102 106 118 120 124
43 84 86 87 90 96 99 100 102 107 108 115 117 118 119 126
85 87 90 93 96 97 99 106 108 110 114 118 126 128
32 97 105 109 125 170
25 85 87 93 104 109 116 118
95 96 97 98 107 112 119
37 85 86 89 90 96 108 110 115 122 146
86 87 89 97 101 104 107 110 120 121
78 108 128 132 152 158 161 171 172 175
10 121 127 129 135 142 145 149 152 159 166 168 169 175 178
13 45 84 128 131 135 137 141 148 154 157 161 163 172 177 180
133 143 151 159 167 170 179
129 133 136 139 144 159 172 175 176 177
99 127 134 137 143 145 146 151 152 155 159 168 172 173 180
130 131 137 139 157 159 161 162 165 170 171 174 180
5 35 106 132 135 136 140 145 150 152 153 158 160 162 179
90 128 129 134 143 152 153 155 159 163 171 172 180
131 134 142 145 148 149 155 157 158 160 163 166 167
10 129 132 133 139 143 146 150 151 153 161 162 163 164 169 173 174
65 95 140 153 169 177 178 180
131 133 137 140 142 152 154 157 166 170 180
134 138 139 141 143 149 159 162 168 180
13 63 129 140 147 150 158 161 162 164 167 170
49 128 136 139 150 158 159 161 168 172 174 178 180
130 132 135 137 140 146 150 151 155 158 165 168 175 179 180
79 131 150 159 163 167 168 174 178 179
6 25 128 132 134 136 151 153 158 164 168 176 179
125 132 137 143 148 151 152 154 155 171 172 179
63 141 155 158 170 177 178
51 129 136 146 152 155 159 161 168 171 177 178 180
22 128 136 140 152 156 158 164 167 176 178
90 134 137 141 142 143 144 152 155 161 162 177 178 180
130 132 137 143 145 146 152 159 162 164 170 177
18 109 127 128 132 134 135 139 146 148 149 150 151 157 158 163 167 172 175 179 180
134 135 137 138 145 154 155 159 160 168 169 170 174 176
94 117 129 139 146 153 156 157 166 168 170
132 135 136 143 146 147 148 150 153 167 170 171 179 180
24 149 154 163 166 171 176 178
6 19 95 129 133 136 139 152 154 167 169 171 173
127 134 136 141 142 143 145 147 149 152 160 164 165 172
128 130 131 132 133 135 140 142 144 148 151 153 163 165 177
108 134 136 153 158 163 173
86 127 129 133 137 141 142 148 150 165 169 171
32 85 93 108 133 134 137 140 141 150 151 171 173 175
129 135 136 137 144 152 156 159 160 164 170 174 177 179
137 141 145 149 151 158 163 172 177
133 143 158 159 161 167 175 176 177
54 118 128 136 139 154 156 167 171 176 180
81 130 136 141 144 149 152 155 157 165 166 173 176
128 132 140 142 143 144 145 148 153 154 170
66 128 137 138 153 157 161 175
122 130 133 139 141 147 151 153 154 155 163 168 173 176 178
127 133 135 146 148 155 156 157 161 162 166 173 175 178
81 127 129 131 132 135 142 146 152 158 164 173 175 178
19 89 92 97 132 137 157 160 162 167 170 171 172 175 179
133 137 142 144 153 163
114 127 128 131 143 152 162 165 169 171 172 173 178 180
131 145 149 153 156 165 166 167 170
1 129 131 138 147 148 150 151 159 163 164 165 180
128 138 142 144 147 148 149 150 156 170 171 172 175
30 98 130 134 143 144 145 146 152 155 163 173
129 132 133 135 138 139 140 142 143 148 150 152 155 166 175 177
