0 1
0 2
0 5
0 7
0 8
0 10
0 15
0 19
0 176
1 8
1 10
1 11
1 15
1 16
1 17
1 21
1 104
2 4
2 5
2 11
2 12
2 16
2 19
3 5
3 6
3 7
3 8
3 10
3 14
3 21
4 5
4 9
4 12
4 15
4 27
4 61
4 133
5 7
5 12
5 14
5 16
5 21
5 144
5 156
6 8
6 16
6 17
6 20
7 8
7 11
7 16
7 17
8 14
8 16
9 18
9 21
9 100
9 127
9 136
10 16
10 43
10 104
11 14
11 16
11 21
12 14
12 17
12 18
12 19
12 49
12 67
12 128
12 140
13 14
13 15
13 21
14 20
14 82
14 89
15 16
16 18
16 19
17 151
18 19
18 156
18 172
20 21
21 40
21 148
22 25
22 36
22 43
22 73
23 24
23 33
23 35
23 38
23 39
23 47
23 155
24 34
24 39
24 122
24 144
25 29
25 31
26 32
26 41
27 31
27 35
27 37
27 44
27 46
27 48
28 34
29 31
29 36
29 39
29 48
29 55
29 178
30 33
30 40
30 47
30 103
31 34
31 36
31 42
31 47
31 121
31 161
32 37
32 118
33 35
33 36
33 41
33 42
33 44
33 48
34 35
34 42
34 43
34 47
34 133
35 38
35 39
35 43
35 47
35 76
36 39
36 41
36 42
36 124
37 38
37 39
37 41
37 43
37 46
37 101
38 39
38 40
38 41
38 45
38 46
39 40
39 48
40 44
40 45
40 47
40 48
41 47
41 56
42 44
42 48
42 104
42 119
43 44
43 45
44 45
44 128
45 61
48 86
48 116
48 141
49 54
49 64
49 69
49 73
49 76
49 79
49 81
49 95
50 54
50 55
50 62
50 65
50 72
50 73
50 74
50 77
50 81
50 147
51 52
51 56
51 58
51 60
51 62
51 64
51 68
51 74
51 76
51 78
52 58
52 62
52 77
52 80
52 81
53 56
53 66
53 68
53 71
53 75
53 76
53 79
53 83
53 165
54 56
54 57
54 68
54 69
54 70
54 74
54 78
54 82
55 57
55 59
55 65
55 72
55 75
55 77
55 81
55 96
56 59
56 61
56 63
56 66
56 67
56 69
56 79
57 67
57 73
57 76
57 80
58 64
58 66
58 81
58 82
59 61
59 66
59 68
59 71
59 72
59 76
59 81
60 71
60 73
61 64
61 67
61 69
61 90
61 102
62 63
62 72
62 73
62 74
62 75
62 76
62 80
62 140
62 146
63 74
63 81
64 65
64 67
64 70
64 137
65 68
65 69
65 74
65 82
65 168
66 68
66 72
66 73
66 74
66 80
66 81
67 69
67 72
68 73
68 75
68 76
68 80
68 82
69 70
69 77
69 80
70 75
70 80
71 74
71 79
71 81
71 82
72 73
72 76
72 77
72 79
72 95
74 75
74 76
74 79
74 102
75 76
75 80
76 79
76 82
77 78
77 96
77 114
77 126
78 100
78 143
80 96
80 166
80 171
82 99
83 84
83 86
83 87
83 89
83 102
83 107
83 118
83 119
83 128
84 89
84 90
84 95
84 97
84 98
84 104
84 107
84 108
84 113
84 117
84 120
84 122
84 124
84 161
85 87
85 93
85 96
85 99
85 116
85 117
85 119
85 124
85 125
85 160
86 88
86 93
86 94
86 100
86 101
86 108
86 111
86 119
86 120
86 122
86 125
87 91
87 92
87 97
87 105
87 108
87 116
88 89
88 90
88 92
88 97
88 99
88 101
88 108
88 111
88 114
88 117
88 124
88 125
88 172
89 90
89 99
89 101
89 104
89 108
89 109
89 110
89 111
89 112
89 119
89 120
89 124
89 134
89 149
90 91
90 94
90 100
90 106
90 111
91 92
91 95
91 100
91 112
91 115
91 117
91 172
92 102
92 104
92 105
92 113
92 114
92 120
92 122
92 161
93 99
93 103
93 104
93 105
93 107
93 110
93 111
93 153
94 95
94 103
94 104
94 106
94 107
94 113
94 117
94 118
94 123
94 137
94 156
95 96
95 101
95 104
95 107
95 111
95 113
95 115
95 119
95 120
95 123
95 124
96 98
96 101
96 106
96 111
96 112
96 114
96 117
96 120
96 121
96 123
96 125
96 172
97 99
97 102
97 108
97 113
97 118
97 123
97 178
98 105
98 109
98 110
98 117
98 119
98 120
98 131
99 106
99 108
99 111
99 115
99 119
100 102
100 106
100 107
100 113
100 117
100 125
101 102
101 105
101 112
101 113
101 118
101 119
102 109
102 112
103 105
103 106
103 112
103 113
103 115
103 122
103 125
104 111
104 114
104 121
105 106
105 109
105 110
105 111
105 115
105 117
105 118
105 120
105 133
106 112
106 119
106 123
106 125
107 109
107 114
107 119
107 120
107 124
107 126
107 159
107 161
108 111
108 113
108 115
108 117
108 121
108 122
108 151
109 110
109 112
109 120
109 124
109 125
110 112
111 116
111 123
112 113
112 115
113 115
113 116
113 120
113 174
114 119
114 124
115 117
115 122
116 119
116 153
117 118
117 119
117 120
117 122
117 165
118 119
118 123
119 125
120 125
120 127
121 124
121 169
124 145
126 127
126 131
126 151
126 157
126 160
126 170
126 171
126 174
127 128
127 134
127 141
127 144
127 148
127 151
127 158
127 165
127 167
127 168
127 174
127 177
128 130
128 134
128 136
128 140
128 147
128 153
128 156
128 160
128 162
128 171
128 176
128 179
129 132
129 142
129 150
129 158
129 166
129 169
129 178
130 132
130 135
130 138
130 143
130 158
130 171
130 174
130 175
130 176
131 133
131 136
131 142
131 144
131 145
131 150
131 151
131 154
131 158
131 167
131 171
131 172
131 179
132 136
132 138
132 156
132 158
132 160
132 161
132 164
132 169
132 170
132 173
132 179
133 134
133 135
133 139
133 144
133 149
133 151
133 152
133 157
133 159
133 161
133 178
134 142
134 151
134 152
134 154
134 158
134 162
134 170
134 171
134 179
135 141
135 144
135 147
135 148
135 154
135 156
135 157
135 159
135 162
135 165
135 166
136 138
136 142
136 145
136 149
136 150
136 152
136 160
136 161
136 162
136 163
136 168
136 172
136 173
137 139
137 152
137 168
137 176
137 177
137 179
138 139
138 141
138 151
138 153
138 156
138 165
138 169
138 179
139 140
139 142
139 148
139 158
139 161
139 167
139 179
140 146
140 149
140 157
140 160
140 161
140 163
140 166
140 169
141 149
141 157
141 158
141 160
141 167
141 171
141 173
141 177
141 179
142 145
142 149
142 150
142 154
142 157
142 164
142 167
142 174
142 178
142 179
143 149
143 158
143 162
143 166
143 167
143 173
143 177
143 178
144 150
144 152
144 157
144 163
144 167
144 175
144 178
145 147
145 150
145 151
145 153
145 154
145 170
145 171
145 178
146 154
146 157
146 169
146 176
146 177
147 151
147 154
147 158
147 160
147 167
147 170
147 176
147 177
147 179
148 151
148 155
148 157
148 163
148 166
148 175
148 177
149 151
149 154
149 160
149 161
149 176
149 177
149 179
150 151
150 158
150 161
150 163
150 169
150 176
151 156
151 157
151 162
151 166
151 171
151 174
151 178
151 179
152 153
152 154
152 158
152 159
152 167
152 168
152 169
152 173
152 175
153 155
153 156
153 165
153 167
153 169
154 166
154 169
154 170
154 178
154 179
155 162
155 165
155 170
155 175
155 177
156 166
156 168
156 170
156 172
157 159
157 163
157 164
157 171
158 162
158 164
158 176
159 162
159 172
160 164
160 168
160 170
161 170
161 172
161 174
162 163
162 169
162 173
162 176
162 178
163 171
163 176
164 166
164 174
164 175
164 176
165 166
165 170
165 175
165 179
166 172
166 175
167 169
168 174
169 172
169 175
169 177
170 172
170 174
170 177
171 172
171 174
171 177
172 174
172 178
174 177
174 179
176 179
