184 1869
2 7 11 14 20 21 22 24 27 31 32 34 38 49 51 53 58 62 67 69 70 73 74 77 161
1 3 4 5 9 10 16 18 24 27 29 34 35 38 45 46 47 59 66 70 71 72 74 75 173
2 5 10 11 18 22 23 25 27 29 33 37 41 42 44 46 49 53 57 59 70 73 74 78
2 9 12 15 25 32 35 38 43 44 45 50 57 62 66 72 74 76 77 79 80
2 3 6 7 11 12 13 18 19 21 27 31 32 35 40 46 48 57 58 61 63 66 73 79 80
5 8 19 21 23 24 33 35 37 39 44 46 53 57 59 60 64 70 71 72 74 75 76 80
1 5 8 10 20 23 24 25 28 37 39 40 42 45 51 53 58 60 64 71 76 77
6 7 10 13 17 31 35 36 48 49 60 73 74 75 76
2 4 11 12 17 21 22 23 29 32 41 48 52 53 54 61 66 71 74 77 80
2 3 7 8 17 18 19 20 22 26 36 50 56 58 59 65 67 68 70 71 72 78 80
1 3 5 9 12 15 16 18 21 23 25 26 36 40 42 43 45 48 49 51 59 62 69 71 72 73 75 76
4 5 9 11 15 16 22 30 32 34 42 43 44 46 47 49 56 61 69 71 72 76 79
5 8 16 19 25 26 30 34 37 39 41 42 43 44 45 46 51 52 53 59 61 66 70 72 79
1 15 17 18 23 24 31 35 36 37 38 43 44 46 51 54 57 60 65 67 70 71 74
4 11 12 14 28 29 30 31 32 37 38 39 42 45 46 48 50 52 56 59 62 77 78
2 11 12 13 17 19 20 22 24 25 28 30 32 33 40 41 45 47 51 57 60 61 66 67 68 70 71 78
8 9 10 14 16 21 27 30 36 38 41 50 52 53 54 55 59 65 68 70 75
2 3 5 10 11 14 21 22 25 31 35 47 51 55 57 59 70 78
5 6 10 13 16 20 27 28 32 33 34 36 37 40 42 44 47 50 51 58 61 66 73 80
1 7 10 16 19 25 29 31 37 41 43 45 47 48 49 51 63 64 67 68
1 5 6 9 11 17 18 22 23 24 27 31 33 38 45 46 50 51 55 56 59 63 66 67 69 70 72 75 77 79
1 3 9 10 12 16 18 21 38 43 49 52 54 55 58 59 60 61 73
3 6 7 9 11 14 21 28 29 30 31 35 37 38 39 42 45 53 63 65 66 67 69 71 75 80
1 2 6 7 14 16 21 25 26 27 30 31 34 36 37 44 46 48 51 52 56 57 58 61 62 64 67 73 74 77 79 80
3 4 7 11 13 16 18 20 24 28 29 30 40 43 48 49 52 53 63 66 69 70 71 72
10 11 13 24 27 29 37 38 40 41 42 44 49 57 61 65 66 67 68
1 2 3 5 17 19 21 24 26 33 35 39 40 41 45 48 49 53 66 68 69 70 71 72 75
7 15 16 19 23 25 36 42 44 50 53 56 58 65 67 70 72 80
2 3 9 15 20 23 25 26 33 38 43 47 51 52 53 55 57 61 72 73
12 13 15 16 17 23 24 25 31 32 35 39 40 43 44 47 48 49 53 54 56 60 69 71 72 73 78
1 5 8 14 15 18 20 21 23 24 30 38 40 42 50 60 63 65 66 67 69 73 76
1 4 5 9 12 15 16 19 30 37 38 46 47 49 51 54 55 58 60 61 62 63 73 74 80
3 6 16 19 21 27 29 34 36 37 39 41 46 47 52 54 60 62 63 68 77
1 2 12 13 19 24 33 38 42 51 52 54 64 65 66 71 72 77 78 79
2 4 5 6 8 14 18 23 27 30 38 41 46 54 59 62 67 74 75 76 77
8 10 11 14 17 19 24 28 33 37 40 42 45 54 57 60 63 68 69 70 77 78 79
3 6 7 13 14 15 19 20 23 24 26 32 33 36 38 39 55 57 58 59 63 64 68 72 73 74 77 80
1 2 4 14 15 17 21 22 23 26 29 31 32 34 35 37 41 43 47 49 51 57 60 67 69 70 77 79
6 7 13 15 23 27 30 33 37 40 43 49 50 52 56 57 60 64 68 69 74 79
5 7 11 16 19 25 26 27 30 31 36 39 52 53 57 60 61 64 74
3 9 13 16 17 20 26 27 33 35 38 45 46 48 54 55 59 64 65 66 68 71 75 76 77 80
3 7 11 12 13 15 19 23 26 28 31 34 36 49 51 53 56 62 67 71 74 77 80
4 11 12 13 14 20 22 25 29 30 38 39 44 51 61 68 69 76 78 79
3 4 6 12 13 14 19 24 26 28 30 43 46 57 58 66 69 72 73 74 75 76 78 79 80
2 4 7 11 13 15 16 20 21 23 27 36 41 46 50 53 57 62 66 74 76 77 78
2 3 5 6 12 13 14 15 21 24 32 33 35 41 44 45 50 54 55 57 60 61 62 63 64 65 66 67 69 70 74 75 78
2 12 16 18 19 20 29 30 32 33 38 48 53 61 62 64 66 69 71 74 76
5 8 9 11 15 20 24 25 27 30 41 47 51 52 53 57 58 60 63 72 76
1 3 8 11 12 20 22 25 26 27 30 32 38 39 42 50 61 63 65 68 69 72 75
4 10 15 17 19 21 28 31 39 45 46 49 51 52 57 59 61 63 69 76
1 7 11 13 14 16 18 19 20 21 24 29 32 34 38 42 43 48 50 55 56 57 58 59 62 63 64 65 67 71 72 73 77
9 13 15 17 22 24 25 29 33 34 39 40 48 50 53 55 67 74 78
1 3 6 7 9 13 17 23 25 27 28 29 30 40 42 45 47 48 52 55 60 62 70 73 77
9 14 17 22 30 32 33 34 35 36 41 46 55 56 62 65 67 68 69 74 78
17 18 21 22 29 32 37 41 46 51 52 53 54 57 58 61 65 69 72 74 77 80
10 12 15 21 24 28 30 39 42 51 54 58 63 69 76
3 4 5 6 14 16 18 24 26 29 36 37 38 39 40 44 45 46 48 50 51 55 59 62 66 72 73 77 78 79
1 5 7 10 19 22 24 28 32 37 44 48 51 55 56 62 63 68 72 73
2 3 6 10 11 13 15 17 18 21 22 35 37 41 50 51 57 62 71 72 73 77
6 7 8 14 16 22 30 31 32 33 36 38 39 40 46 48 53 63 67 74 76 80
5 9 12 13 16 19 22 24 26 29 32 40 43 46 47 49 50 55 64 68 71 77 80
1 4 11 15 24 32 33 35 42 45 46 47 51 53 54 57 58 59 65 68 69
5 20 21 23 25 31 32 33 36 37 46 48 49 50 51 56 58 60 65 67 70 76 77 79
6 7 20 24 34 37 39 40 41 46 47 51 61 66 67 69 72 80
10 14 17 23 26 28 31 34 41 46 49 51 54 55 62 63 67 72 74 80
2 4 5 9 13 16 19 21 23 25 26 27 31 34 41 44 45 46 47 57 64 67 69 70 71 72 75 80
1 10 14 16 20 21 23 24 26 28 31 35 38 42 46 51 52 54 60 63 64 65 66 68 69 72 74 76 80
10 16 17 20 26 27 33 36 37 39 41 43 49 54 58 61 62 67 69 70 72 76 78 80
1 11 12 21 23 25 27 30 31 36 38 39 43 44 46 47 49 50 54 55 56 62 64 66 67 68 70 72 74 75 79
1 2 3 6 10 13 14 16 17 18 21 25 27 28 36 38 46 53 63 66 68 69 73 76
2 6 7 9 10 11 12 14 16 23 25 27 30 34 41 42 47 51 59 61 66 73 75 79
2 4 6 10 11 12 13 21 25 27 28 29 30 34 37 44 48 49 51 55 57 58 59 64 65 66 67 68 69 74 77
1 3 5 8 11 19 22 24 29 30 31 32 37 44 51 53 57 58 59 70 71 76 77 79 80
1 2 3 4 6 8 9 14 24 32 35 37 39 40 42 44 45 46 47 52 54 55 60 65 67 69 72 79 80
2 6 8 11 17 21 23 27 35 41 44 46 49 66 69 71
4 6 7 8 11 12 31 35 41 43 44 45 47 48 50 56 60 63 67 68 70 73
1 4 7 9 15 21 24 33 34 35 36 37 38 41 42 45 51 53 55 57 59 61 63 72 73 78 79
3 10 15 16 18 30 34 36 43 44 45 46 52 54 57 68 77 80
4 5 12 13 21 24 34 36 38 39 43 44 57 63 69 71 73 74 77
4 5 6 9 10 19 23 24 28 32 37 41 42 44 55 60 61 64 65 66 67 68 73 74 78
86 88 89 93 95 97 102 119 128 130 132 134 142 144 151 153 157 172
86 88 90 92 93 102 108 111 113 115 118 121 124 128 135 136 139 140 141 143 147 159 184
89 100 117 119 125 128 129 132 137 138 144 148 149 151 154 157
85 86 91 95 100 109 123 125 129 146 147 149 153 154 155 156 157 159
84 86 87 90 93 95 100 102 107 115 117 121 122 123 124 135 137 138 146 147 149 150
81 82 84 85 88 89 91 104 105 109 110 111 117 122 123 125 129 130 140 144 145 146 150 152 156 158 159
85 88 91 92 94 102 103 106 107 111 113 115 117 119 121 124 126 132 138 139 143 147 148 150 151
81 82 86 87 92 95 97 100 102 103 110 111 114 115 117 118 120 121 123 133 134 135 136 138 139 145 147 148 149 159
81 83 86 90 92 98 102 103 105 108 109 113 118 124 127 128 129 135 136 139 145 148 150 155
82 85 89 95 96 97 100 101 102 106 116 118 119 129 132 133 142 146 150 153 154 155 159
84 86 87 98 107 109 125 127 129 135 141 142 148 151 154 156 159
82 87 88 89 93 94 96 100 102 125 126 129 140 141 156 158 159
81 82 85 92 98 100 102 105 116 118 121 126 128 129 130 133 134 135 136 139 140 143 152 156 159
87 92 114 120 122 123 131 139 140 141 142 146 147 154 159 160
81 84 85 88 90 96 98 102 110 112 114 117 121 124 125 126 130 132 134 136 139 142 143 148 152 153 154 155 158
90 92 95 100 103 104 117 124 129 130 132 133 135 136 139 140 141 147 148 149 150 151 152 156 157 159
81 88 90 99 100 105 108 113 115 116 117 120 124 127 129 142 143 151 158
89 91 93 95 100 103 104 105 106 107 108 117 122 128 129 130 131 137 139 144 151 153 156 158
97 102 105 109 114 116 122 123 125 127 129 138 144 145 146 147 150 157
83 84 85 88 90 92 93 96 97 98 107 111 114 115 116 118 126 129 134 137 140 142 143 153 154 155
90 112 113 116 120 121 123 129 130 135 136 144 146 148 150 151
81 82 85 87 88 89 90 92 93 95 99 103 105 106 108 109 119 120 123 124 126 127 129 131 133 134 138 139 145 147 150 151 153 154 160
87 88 89 96 98 102 111 112 113 117 118 121 124 135 142 144 148 149 153 155
86 96 98 105 106 107 108 112 116 118 120 121 123 130 132 136 141 144 152 154 156 157
86 89 93 97 98 99 102 104 107 108 109 111 112 114 116 118 124 125 126 130 137 139 144 146 148 150 153
87 90 98 102 104 109 113 114 120 122 124 126 131 132 134 136 137 142 144 151 152 158 159
85 87 91 98 100 104 105 108 118 120 123 124 125 127 138 142 143 149 150 158 160
82 89 97 98 102 104 105 107 109 110 115 117 123 124 125 132 134 139 142 154
84 86 89 91 99 102 105 106 108 126 127 128 129 137 139 140 141 145 153 154 155 159
86 88 95 108 112 115 116 121 124 125 127 131 132 133 140 144 148 151 154 158
82 86 87 88 100 103 105 112 124 129 133 141 145 146 148 152 158 159
95 101 103 104 105 110 111 115 116 118 124 126 134 136 143 146 147 148 153 155 160
82 87 89 97 101 103 106 114 116 117 118 119 123 124 125 130 131 132 136 138 145 153 154 156
88 94 95 99 100 105 106 113 117 123 132 134 135 139 140 148 153 154 156 157
82 85 87 88 97 100 108 110 112 116 117 119 129 133 136 138 147 153 160
90 93 97 99 100 101 104 105 110 112 113 115 119 125 128 137 138 139 141 145 146 147 149 151 152 155 157
83 85 86 87 88 95 96 97 98 103 108 113 114 115 120 126 132 133 135 139 143 144 145 150 151 153 154 156 157
82 88 89 90 93 100 103 104 105 107 112 113 125 127 135 136 143 145 146 147 149 150 151 154 156 157 158 159 160
81 83 87 90 102 113 115 116 128 129 131 132 139 140 141 142 153 156
88 94 97 101 102 104 106 107 117 122 124 133 136 144 147 148 150 151 155 156 160
82 85 87 88 93 95 101 103 104 110 123 125 126 131 134 137 141 144 147 148 150 152 153 154
85 86 94 98 99 106 120 127 131 133 135 138 140 141 147 148 152 153 155
84 85 86 88 94 99 101 102 104 107 108 113 114 121 124 126 133 137 143 144 145 147 150 151 152 156 159
82 85 87 89 95 96 97 102 103 105 106 107 108 110 111 112 113 120 123 126 127 134 135 140 141 147 152 156 160
83 84 86 91 92 95 99 105 107 108 110 113 116 118 121 128 133 135 138 140 143 149 156
87 92 93 95 100 102 105 106 109 112 117 121 123 124 127 128 130 133 136 138 142 144 146 153 159
89 91 97 99 102 107 109 110 118 122 124 126 128 129 130 135 139 140 143 146 148
81 82 83 89 93 98 109 116 119 125 126 127 130 132 134 142 147 150 151 156 158
83 84 86 89 90 91 92 93 96 97 98 99 100 101 102 109 111 115 119 127 139 141 142 143 146 147 150 152 154 155 156 157 159
81 86 93 95 96 98 101 104 105 113 126 127 128 151
94 98 102 106 110 113 119 121 122 133 137 138 149 151 154 155 156 159
81 83 87 90 95 96 104 106 108 110 113 114 117 119 128 133 137 139 142 143 144 152 156
88 90 93 96 102 110 111 115 117 120 122 123 125 126 131 132 135 138 140 142 144 151 156 158 159
81 88 93 95 100 102 106 108 112 114 121 124 128 136 137 142 143 146 147 154 157 160
82 85 88 89 91 93 96 101 103 114 117 118 122 124 125 127 133 137 142 143 145 156 157
82 88 89 93 95 96 101 104 106 112 113 115 118 120 126 134 143 145 146 149 151 153 154 156 160
83 85 98 100 105 106 109 116 121 123 131 132 134 135 140 141 142 146 149 150 151 157 160
83 85 87 88 99 102 107 113 115 116 122 125 126 131 133 141 146 149 155
82 87 88 89 93 94 95 96 98 102 105 108 109 114 116 117 119 127 129 132 145 146 147 148 149 159
82 86 92 93 94 96 100 109 110 114 119 122 124 125 127 133 137 141 142 143 148 157 159
82 91 92 94 96 104 109 111 116 119 121 122 124 129 137 138 140 142 147 151 152 153 156 158 160
81 90 91 94 95 97 100 103 106 107 108 119 126 128 129 132 133 134 135 137 140 141 143 152 159 160
82 87 93 95 97 100 107 112 117 118 123 125 127 129 132 134 135 136 140 142 144 147 156 157
81 83 86 98 99 101 103 104 105 106 110 117 120 121 123 126 132 133 143 145 152 156 157 160
86 88 89 99 102 109 111 113 116 117 118 123 135 136 139 144 151 157
84 85 86 90 94 99 101 105 111 112 116 118 126 127 129 134 136 137 138 139 157 159 160
82 84 85 87 88 94 96 99 102 112 115 116 118 120 121 122 123 124 128 129 134 139 141 143 150 151 152 153 158 160
83 87 88 89 91 95 96 101 103 105 110 111 112 114 120 121 122 127 139 140 155
83 84 85 88 96 103 107 116 118 125 131 136 137 138 139 151 152 155 157
85 86 87 89 90 96 99 101 102 105 107 117 118 120 121 123 128 129 137 147 151 155 156
81 83 87 91 96 97 98 101 102 106 110 116 117 118 120 123 128 130 131 133 136 137 141 145 147 149 150 160
86 93 95 96 104 106 111 116 121 122 123 124 129 132 141 142 144 147 149 154 156 159 160
81 84 90 95 98 100 102 103 105 109 112 113 114 115 117 119 121 122 126 136 141 147 159
83 84 90 91 94 95 100 102 104 108 109 110 113 114 117 118 121 129 131 134 136 152 156
84 89 90 95 100 103 109 112 116 120 122 129 131 138 148 149 150 160
84 86 91 92 93 96 98 104 113 114 117 118 119 120 123 124 125 128 129 131 132 133 135 136 141 143 144 150 152 154 159
81 83 84 96 99 104 114 116 117 118 129 134 135 137 140 143 144 145 146 149 160
86 92 95 97 98 106 107 110 111 118 128 133 141 147 160
82 84 86 88 90 91 92 93 94 96 106 109 111 118 123 126 129 131 133 139 140 142 146 152 153 156
94 102 107 112 115 118 120 124 134 136 137 141 142 144 146 147 151 152 155 157 158
1 162
161 163
162 164
163 165
164 166
165 167
166 168
167 169
168 170
169 171
170 172
81 171
2 174
173 175
174 176
175 177
176 178
177 179
178 180
179 181
180 182
181 183
182 184
82 183
