0 5
0 9
1 8
1 12
1 13
1 14
1 16
1 18
1 77
1 215
2 5
2 38
3 7
3 116
3 159
4 6
4 8
4 10
4 12
4 34
5 8
5 11
5 19
5 82
5 109
5 120
6 7
6 18
6 232
7 8
7 110
7 114
8 10
8 12
8 15
8 17
8 72
8 167
9 14
9 16
9 140
9 198
10 13
10 19
10 120
11 13
11 17
11 19
12 14
12 37
12 61
13 15
13 16
13 19
13 229
14 149
15 16
16 17
16 18
16 19
16 106
16 128
16 160
17 18
17 19
18 84
18 189
18 198
19 62
20 26
20 32
20 34
20 51
20 141
21 26
21 35
21 36
21 123
22 23
22 25
22 34
22 35
22 45
22 233
23 29
23 40
23 43
23 61
23 216
24 25
24 29
24 36
24 42
24 59
24 221
25 26
25 32
25 35
25 37
25 67
25 106
26 28
26 32
26 33
26 34
26 37
26 39
26 41
26 53
27 29
27 34
27 38
27 45
28 37
28 45
29 31
29 32
29 39
30 88
30 186
30 217
31 35
31 36
31 37
31 38
31 43
31 44
32 35
32 175
32 186
33 35
33 41
33 43
33 44
33 161
34 35
34 42
34 141
35 38
35 40
35 41
35 42
36 39
36 45
36 187
38 45
38 118
38 154
38 207
39 41
39 45
40 44
40 135
40 238
41 43
43 45
43 111
43 140
44 45
44 224
45 112
46 52
46 53
46 57
46 60
46 62
46 69
46 70
46 78
46 90
46 238
47 54
47 56
47 60
47 63
47 64
47 65
47 68
47 70
47 75
48 57
48 59
48 65
48 70
48 76
48 78
48 105
49 62
49 70
49 71
49 74
49 119
50 51
50 57
50 66
50 71
51 52
51 58
51 61
51 63
51 65
51 73
51 78
51 166
51 214
52 54
52 58
52 60
52 63
52 67
52 74
52 211
53 55
53 69
53 78
53 219
54 61
54 65
54 71
54 103
55 56
55 61
55 65
55 66
55 70
55 72
55 75
56 59
56 62
56 65
56 68
56 72
56 74
57 60
57 62
57 63
57 65
57 67
57 73
57 76
57 211
58 64
58 67
58 68
58 136
59 67
59 78
59 105
59 210
59 225
60 69
60 71
60 75
60 78
60 157
60 242
61 70
61 76
61 78
62 68
62 70
62 75
62 77
62 131
63 66
63 70
63 73
63 76
63 172
64 69
64 71
64 75
64 175
64 188
65 67
65 74
65 86
66 69
67 69
67 131
67 150
68 76
69 72
70 78
71 74
71 227
73 74
73 78
73 81
73 152
74 238
75 76
75 201
77 174
77 213
77 232
79 84
79 88
79 93
79 105
79 110
80 90
80 92
80 99
80 102
80 105
80 106
80 109
80 110
80 117
80 132
81 84
81 90
81 115
81 120
81 160
81 204
82 84
82 85
82 87
82 89
82 94
82 103
82 104
82 105
82 110
82 113
82 118
82 119
83 92
83 93
83 96
83 97
83 98
83 103
83 106
83 108
83 110
83 116
84 86
84 87
84 89
84 96
84 97
84 100
84 103
84 119
85 86
85 92
85 93
85 96
85 102
85 112
85 117
85 120
85 195
86 89
86 90
86 93
86 95
86 96
86 97
86 98
86 99
86 101
86 102
86 115
86 242
87 93
87 120
87 159
88 110
88 113
88 119
89 91
89 92
89 94
89 95
89 98
89 100
89 102
89 106
89 110
90 96
90 97
90 102
90 105
90 108
91 92
91 101
91 103
91 105
92 93
92 100
92 106
92 107
92 111
92 112
93 101
93 102
93 107
93 109
93 119
94 98
94 115
94 117
94 138
95 97
95 98
95 104
95 111
95 118
95 235
96 118
96 186
97 102
97 109
97 111
97 116
97 117
97 118
98 104
98 108
98 109
98 116
98 117
98 119
98 154
99 101
99 104
99 108
99 110
99 112
99 115
99 118
100 108
100 110
100 111
100 112
100 114
100 115
100 120
100 174
101 109
101 110
101 114
101 118
101 149
101 156
101 211
102 105
102 114
102 116
102 118
102 230
103 104
103 105
103 112
103 115
103 119
103 120
104 106
105 106
105 114
105 212
106 107
106 108
106 111
106 114
106 119
107 110
107 115
107 117
108 118
108 124
108 150
109 115
109 119
109 120
110 111
110 114
110 118
110 119
110 227
111 118
111 143
112 120
112 187
112 213
113 114
113 117
113 120
113 192
114 116
114 120
114 159
114 228
115 117
115 134
118 140
120 141
120 159
121 137
121 139
121 143
121 145
121 153
121 173
122 136
122 138
122 144
122 147
122 151
122 154
122 155
122 167
122 172
122 174
123 126
123 131
123 132
123 133
123 135
123 144
123 157
123 162
123 165
123 171
123 172
124 135
124 139
124 154
124 155
124 160
124 168
124 173
124 174
124 175
125 129
125 134
125 148
125 155
125 156
125 157
125 164
125 169
125 171
126 128
126 131
126 133
126 140
126 144
126 164
126 173
126 231
126 239
127 135
127 138
127 144
127 147
127 149
127 151
127 155
127 162
127 170
128 132
128 133
128 135
128 141
128 142
128 153
128 154
128 158
128 161
128 164
128 174
128 179
128 210
129 130
129 145
129 150
129 153
129 154
129 156
129 161
129 162
129 169
129 172
130 132
130 147
130 156
130 164
130 167
131 136
131 138
131 140
131 148
131 150
131 152
131 158
131 167
131 170
132 134
132 135
132 138
132 144
132 148
132 149
132 155
132 167
133 146
133 153
133 163
133 166
133 170
133 171
134 141
134 145
134 146
134 150
134 151
134 152
134 153
134 156
134 157
134 161
134 164
134 166
134 173
135 148
135 155
135 162
135 165
135 172
135 236
136 155
136 157
136 160
136 168
136 172
137 142
137 145
137 151
137 153
137 154
137 157
137 159
137 162
137 172
137 173
137 180
138 139
138 145
138 148
138 168
138 170
138 173
139 140
139 148
139 153
139 154
139 158
139 161
139 163
139 164
139 168
139 173
140 141
140 163
141 142
141 146
141 148
141 151
141 162
141 166
141 169
141 231
142 145
142 149
142 150
142 159
142 164
142 167
142 168
142 170
142 172
143 145
143 152
143 157
143 158
143 160
143 165
144 146
144 151
144 155
144 161
145 148
145 149
145 152
145 161
145 164
145 165
145 170
145 173
146 150
146 151
146 152
146 172
146 198
147 150
147 153
147 157
147 162
147 163
147 164
147 165
147 168
147 195
147 234
148 149
148 151
148 154
148 160
148 216
149 162
149 165
150 158
150 160
150 161
150 171
150 172
150 234
151 157
151 165
151 171
152 153
152 156
152 160
152 164
152 169
152 171
152 201
152 219
153 167
153 168
153 170
153 172
153 205
154 155
154 158
154 162
154 168
155 169
155 173
156 161
156 165
156 169
156 170
156 171
157 162
157 166
157 167
157 169
157 172
157 173
158 160
158 162
158 164
158 165
158 168
158 169
158 220
159 163
159 167
159 168
159 170
159 191
160 162
160 164
160 169
161 165
161 173
161 174
162 169
162 187
163 166
163 168
165 169
165 217
165 222
166 168
166 170
166 173
166 175
167 173
167 239
168 169
168 173
169 184
170 172
170 173
172 174
172 181
172 213
173 217
174 241
175 176
175 179
175 181
175 184
175 185
175 188
175 194
175 199
175 201
175 206
175 208
175 216
175 220
175 221
175 228
175 229
175 242
176 184
176 192
176 195
176 197
176 204
176 217
176 227
176 232
176 234
176 235
177 183
177 185
177 188
177 200
177 212
177 217
177 224
177 229
178 181
178 186
178 204
178 210
178 215
178 217
178 220
178 227
178 235
178 236
178 237
179 185
179 190
179 193
179 194
179 195
179 196
179 199
179 200
179 201
179 204
179 205
179 208
179 213
179 217
179 220
179 221
179 223
179 224
179 234
179 237
179 238
179 239
179 242
180 187
180 190
180 196
180 198
180 212
180 213
180 214
180 215
180 216
180 218
180 219
180 223
180 229
181 183
181 184
181 193
181 206
181 212
181 215
181 216
181 220
181 229
181 231
181 236
182 187
182 188
182 190
182 194
182 200
182 202
182 205
182 211
182 214
182 215
182 227
182 237
183 187
183 191
183 198
183 206
183 211
183 219
183 221
183 225
183 232
183 238
183 239
183 242
184 186
184 187
184 216
184 218
184 221
184 224
184 231
184 240
184 241
185 188
185 199
185 203
185 206
185 210
185 216
185 230
185 238
186 198
186 200
186 202
186 213
186 217
186 225
186 232
186 242
187 191
187 198
187 201
187 208
187 210
187 216
187 220
187 228
187 229
187 239
188 189
188 200
188 203
188 217
188 220
188 221
188 222
188 224
188 227
188 229
188 232
188 239
189 197
189 200
189 201
189 202
189 210
189 211
189 214
189 216
189 224
189 228
189 232
190 192
190 201
190 216
190 219
190 229
190 230
190 231
191 201
191 203
191 213
191 214
191 235
192 197
192 200
192 211
192 213
192 216
192 218
192 227
192 229
192 236
192 242
193 199
193 201
193 208
193 210
193 215
193 226
193 232
193 237
194 195
194 203
194 206
194 210
194 211
194 212
194 217
194 225
194 227
194 229
194 237
195 199
195 201
195 205
195 221
195 225
195 229
195 232
195 234
195 237
195 242
196 230
196 239
196 242
197 201
197 213
197 217
197 220
197 224
197 226
197 227
197 230
197 238
198 199
198 200
198 205
198 206
198 210
198 213
198 217
198 222
198 233
198 240
199 208
199 209
199 210
199 218
199 221
199 222
199 223
199 228
199 242
200 203
200 209
200 211
200 214
200 217
200 219
200 220
200 222
200 232
200 238
201 202
201 204
201 206
201 212
201 225
201 233
201 234
202 208
202 225
202 227
202 228
202 237
202 242
203 209
203 210
203 217
203 218
203 225
203 227
203 230
203 234
203 236
203 237
204 209
204 213
204 216
204 234
204 239
205 208
205 209
205 212
205 214
205 224
205 225
205 228
205 230
205 235
205 236
205 241
205 242
206 219
206 223
206 230
206 238
207 208
207 210
207 213
207 218
207 219
207 220
207 221
207 231
207 232
207 239
207 242
208 212
208 214
208 223
208 228
208 230
208 239
208 241
209 218
209 223
209 224
209 229
209 232
209 234
210 211
210 212
210 214
210 217
210 230
210 231
210 237
210 241
211 217
211 218
211 228
211 235
212 218
212 224
212 227
212 228
212 233
212 235
212 238
213 214
213 221
213 226
213 229
213 236
214 217
214 218
214 219
214 233
214 234
214 239
215 230
215 231
215 232
215 240
215 241
216 217
216 218
216 224
216 226
216 228
216 231
216 233
216 234
216 238
217 219
217 220
217 224
217 229
217 234
217 237
218 220
218 226
218 228
218 233
218 237
218 241
219 225
219 229
219 235
219 237
220 225
220 229
220 242
221 223
221 224
221 237
221 239
222 226
222 229
222 231
222 239
222 241
223 224
223 226
223 227
223 232
223 234
223 239
223 241
223 242
224 232
224 236
224 237
224 240
225 226
225 232
225 235
226 232
226 241
227 228
227 232
227 233
228 232
231 236
231 237
234 235
234 242
237 239
239 240
