243 1240
6 10
9 13 14 15 17 19 78 216
6 39
8 117 160
7 9 11 13 35
1 3 9 12 20 83 110 121
5 8 19 233
4 7 9 111 115
2 5 6 8 11 13 16 18 73 168
1 15 17 141 199
5 9 14 20 121
6 14 18 20
2 5 9 15 38 62
2 11 12 16 17 20 230
2 10 13 150
9 14 17
2 10 14 16 18 19 20 107 129 161
9 12 17 19 20
2 7 17 18 85 190 199
6 11 12 14 17 18 63
27 33 35 52 142
27 36 37 124
24 26 35 36 46 234
23 30 41 44 62 217
26 30 37 43 60 222
23 25 27 33 36 38 68 107
21 22 26 29 33 34 35 38 40 42 54
30 35 39 46
27 38 46
24 25 28 32 33 40
89 187 218
30 36 37 38 39 44 45
21 26 27 30 36 176 187
27 36 42 44 45 162
5 21 23 27 28 36 43 142
22 23 26 32 33 34 35 39 41 42 43
22 25 32 40 46 188
13 26 27 29 32
3 28 32 36 46 119 155 208
27 30 37 42 46
24 36 45 136 239
27 34 36 40 44
25 35 36
24 32 34 42 46 112 141
32 34 41 46 225
23 28 29 37 39 40 44 45 113
53 54 58 61 63 70 71 79 91 239
55 57 61 64 65 66 69 71 76
58 60 66 71 77 79 106
63 71 72 75 120
52 58 67 72
21 51 53 59 62 64 66 74 79 167 215
47 52 55 59 61 64 68 75 212
27 47 56 70 79 220
48 53 62 66 72 104
54 57 62 66 67 71 73 76
48 56 60 63 66 69 73 75
47 49 51 61 63 64 66 68 74 77 212
52 53 65 68 69 137
25 49 57 68 79 106 211 226
47 48 53 58 70 72 76 79 158 243
13 24 52 55 56 71 77 79
20 47 50 57 58 69 71 76 78 132
48 52 53 58 67 71 74 77 173
48 59 70 72 76 176 189
48 49 52 55 56 57 58 68 75 87
51 56 64 70
26 53 58 59 60 66 70 132 151
48 57 59 63 77
47 54 61 65 67 68 73
47 48 49 50 56 62 63 64 79
50 51 55 61 65 75 228
9 56 57 70
52 58 64 75 79 82 153
50 53 57 66 72 74 239
48 56 61 63 65 77 202
49 58 62 64 69 76
2 63 175 214 233
47 49 52 54 60 61 62 71 74
85 89 94 106 111
91 93 100 103 106 107 110 111 118 133
74 85 91 116 121 161 205
6 85 86 88 90 95 104 105 106 111 114 119 120
93 94 97 98 99 104 107 109 111 117
19 80 82 83 87 88 90 97 98 101 104 120
83 87 93 94 97 103 113 118 121 196
66 85 86 90 91 94 96 97 98 99 100 102 103 116 243
83 85 94 121 160
31 80 111 114 120
83 85 87 92 93 95 96 99 101 103 107 111
47 81 82 87 97 98 103 106 109
90 93 102 104 106
81 84 86 90 92 94 101 107 108 112 113
80 84 86 87 88 93 102 103 108 110 120
83 90 99 116 118 139
87 90 98 99 105 112 119 236
84 85 86 87 91 119 187
84 85 87 91 96 103 110 112 117 118 119
84 87 90 95 96 105 109 110 117 118 120 155
81 87 102 105 109 111 113 116 119
85 90 93 109 111 112 113 115 116 121 175
87 92 94 100 110 111 115 119 150 157 212
81 86 87 90 91 94 98 106 115 117 119 231
55 83 84 85 92 105 106 113 116 120 121
83 96 99 100 104 107
49 60 80 81 83 91 92 103 104 107 115 213
17 26 81 84 90 93 105 106 108 109 112 115 120
93 94 107 111 116 118
84 91 99 100 101 107 119 125 151
6 81 94 98 99 102 116 120 121
8 80 81 83 84 89 90 100 101 102 108 112 115 119 120 228
44 93 96 98 101 107 111 119 144
46 86 93 100 101 104 121 188 214
83 89 115 118 121 193
8 101 102 103 106 107 111 114 117 121 160 229
82 87 95 100 101 104 108 110 118 135
4 84 98 99 103 115
81 86 95 98 99 108 114 116
39 83 96 97 98 100 102 103 109 111 112 141
50 83 85 89 94 99 104 107 110 111
6 11 82 86 88 101 104 110 113 114 115 142 160
138 140 144 146 154 174
137 139 145 148 152 155 156 168 173 175
22 127 132 133 134 136 145 158 163 166 172 173
109 136 140 155 156 161 169 174 175 176
130 135 149 156 157 158 165 170 172
124 129 132 134 141 145 165 174 232 240
136 139 145 148 150 152 156 163 171
17 127 133 134 136 142 143 154 155 159 162 165 175 180 211
126 131 146 151 154 155 157 162 163 170 173
130 133 148 157 165 168
63 68 124 127 137 139 141 149 151 153 159 168 171
81 124 129 131 135 136 139 145 149 150 156 168
124 127 129 147 154 164 167 171 172
116 126 133 142 146 147 151 152 153 154 157 158 162 165 167 174
41 124 125 128 129 133 149 156 163 166 173 237
59 123 132 156 158 161 169 173
122 143 146 152 154 155 158 160 163 173 174 181
95 123 128 132 133 140 146 149 169 171 174
122 125 139 141 149 154 155 159 162 164 165 169 174
10 44 119 127 132 140 142 164
21 35 121 129 135 141 143 147 149 152 163 167 170 232
129 138 142 146 150 151 160 165 168 169 171 173
112 122 146 153 158 159 161 166
123 124 127 128 133 147 152 156 162
122 130 135 138 139 143 144 149 150 153 162 165 166 171 174
134 135 142 145 151 152 153 173 199
123 128 131 151 154 158 163 164 165 166 169 196 235
126 132 133 136 139 140 142 146 150 152 155 161 217
15 102 128 133 143 146 149 163 166
68 109 130 132 135 143 147 148 159 161 162 172 173 235
123 128 135 138 142 145 147 149 158 166 172
74 132 135 144 146 147 154 157 161 165 170 172 202 220
122 129 130 134 135 138 140 148 153 168 169 171 173 206
39 99 123 125 129 130 138 140 149 156 159 163 169
123 125 126 128 133 136 137 145 155 170 174
102 126 130 131 135 153 162 166 170 171 172
61 124 126 135 137 138 144 148 152 163 167 168 170 173 174
129 132 140 144 151 155 161 163 165 166 169 170 221
4 88 115 121 138 143 164 168 169 171 192
17 82 125 137 144 149 151 153 159 163 165 170
34 129 130 135 140 145 146 151 157 166 174 175
124 128 130 136 138 142 148 150 155 158 159 161 170 188
134 140 141 148 160 167 169
126 127 129 131 135 140 143 146 148 153 159 161
124 136 144 146 148 150 152 157 159 162 170 218 223
52 134 135 142 158 164 169 171 174 176
9 123 131 132 133 143 154 158 160 174 240
125 137 139 140 143 148 154 155 159 160 164 167 170 174
126 130 142 153 156 157 158 159 161 163 166 169 185
128 132 134 139 143 146 154 157 160 167 173 174
124 126 134 151 152 153 157
64 123 124 130 136 137 138 143 147 151 154 158 171 175 182 214
122 125 127 135 138 139 140 146 156 158 162 167 168 169 171 218
78 101 123 125 129 162 173 242
33 65 125 167 177 180 182 185 186 189 195 200 202 207 209 217 221 222 229 230 243
176 185 193 196 198 205 218 228 233 235 236
184 186 189 201 213 218 225 230
182 187 205 211 216 218 221 228 236 237 238
129 176 186 191 194 195 196 197 200 201 202 205 206 209 214 218 221 222 224 225 235 238 239 240 243
138 188 191 197 199 213 214 215 216 217 219 220 224 230
173 176 179 184 185 194 207 213 216 217 221 230 232 237
188 189 191 195 201 203 206 212 215 216 228 238
178 182 188 192 199 207 212 220 222 226 233 239 240 243
170 176 177 182 187 188 217 219 222 225 232 241 242
176 178 180 189 200 204 207 211 217 231 239
31 33 97 179 185 199 201 203 214 218 226 233 243
37 113 163 181 183 184 185 192 199 202 209 211 217 221 229 230 240
65 176 178 183 186 190 201 204 218 221 222 223 225 228 230 233 240
19 189 198 201 202 203 211 212 215 217 225 229 233
180 181 183 193 202 217 220 230 231 232
160 184 188 202 204 214 215 236
114 177 191 198 201 212 214 217 219 228 230 237 243
180 182 200 202 209 211 216 227 233 238
176 180 183 196 204 207 211 212 213 218 226 228 230 238
86 148 177 180 195 200 202 206 222 226 230 233 235 238 243
180 181 231 240 243
177 190 193 202 214 218 221 225 227 228 231 239
10 19 147 181 184 187 188 200 201 206 207 211 214 218 223 234 241
176 180 186 194 196 199 209 210 211 219 222 223 224 229 243
178 180 183 187 189 190 193 199 204 210 212 215 218 220 221 223 233 239
76 153 176 180 188 190 191 192 194 196 198 203 205 207 213 226 234 235
183 187 190 202 209 226 228 229 238 243
186 189 192 195 201 210 211 218 219 226 228 231 235 237 238
82 177 179 180 202 210 214 217 235 240
154 180 183 196 199 209 210 213 215 225 226 229 231 236 237 242 243
176 182 184 186 195 199 202 220 224 231 239
39 209 211 214 219 220 221 222 232 233 240 243
176 180 188 194 200 203 206 208 213 215 224 229 231 240 242
200 201 204 205 206 219 224 225 230 233 235
60 129 179 186 188 190 194 195 199 200 204 208 212 213 215 218 231 232 238 242
53 58 102 183 184 190 193 195 201 211 218 219 229 236
106 178 181 182 195 202 206 209 211 219 225 228 229 234 236 239
78 113 173 180 181 187 192 193 198 199 205 208 215 222 227 230 237
52 181 183 190 192 201 206 209 211 214 218 219 220 234 235 240
2 179 181 182 183 194 231 232 233 241 242
24 149 176 181 182 185 186 188 190 191 193 205 218 219 225 227 229 232 234 235 239
31 166 174 177 178 179 180 187 189 195 198 199 201 204 211 212 215 217 220 221 225 230 235 238
181 185 193 200 204 208 210 212 213 215 217 221 227 229 234 238 242
54 153 181 184 191 201 207 208 215 218 226 230 236 238
159 176 179 180 182 188 189 198 201 208 218 219 226 230 243
25 176 180 184 185 189 196 200 208 214 224 225 238 240
166 189 199 200 201 227 230 232 240 242
180 181 200 207 209 210 222 225 227 228 233 235 240 242 243
45 178 180 185 189 190 198 206 210 213 217 218 222 224 233 237 238 241
60 184 187 195 196 202 203 204 206 220 221 227 233 236
194 198 214 217 219 223 224 226 233 242
72 111 177 179 183 189 193 195 198 203 204 213 224 229 233 234
115 176 188 190 200 203 206 209 212 213 217 219 228 233
14 176 178 181 182 188 189 191 193 195 196 210 214 218 220 221 223
103 186 191 197 198 204 206 207 209 211 216
127 142 182 185 191 208 211 216 217 223 237 238
7 78 177 184 187 189 190 194 196 201 208 210 216 224 225 226 227 228 229
23 199 202 213 215 217 219 228
148 151 177 180 196 202 204 205 210 215 217 218 224 236 243
96 177 179 192 206 212 213 220 226 235
136 179 182 193 204 206 214 225 232
179 180 183 194 195 196 203 204 211 218 219 220 222 225 232 240
41 47 75 180 184 186 198 201 207 213 217
127 168 180 184 188 189 197 205 208 209 215 222 223 224 238 241
185 199 216 225 240
175 185 206 209 211 216 219 223 224 227
61 87 176 180 184 187 193 196 197 200 203 206 208 221 224 235
