200 597
2 3 4 5 6 7 8 9 10 11 12 13 16 17 18 19 20 21 24 26 28 29 33 34 37 38 40 41 49 52 54 60 65 71 73 82 84 93 104 117 120 122 123 124 129 133 136 149 157 169 170 178 192
1 7 11 21 60 102 123 145 147 197
1 5 6 184 194
1 5 7 13 19 23 34 47 57 78 85 93 105 144
1 3 4 6 10 11 15 20 22 23 25 27 28 34 42 43 47 54 58 72 86 89 94 104 106 121 132 161 195
1 3 5 8 9 12 14 15 29 38 45 48 55 62 75 90 97 134 147 150 153 174
1 2 4 8 15 24 32 35 37 69 94 112 129 172
1 6 7 9 10 21 25 27 28 31 32 36 76 107 118 148 154 160 196
1 6 8 20 58
1 5 8 17 22 26 31 42 44 45 53 60 67 70 75 76 81 82 92 110 114 139 140 164 168 183
1 2 5 12 14 17 18 39 41 44 50 61 84 122 124 191
1 6 11 13 14 16 19 25 40 62 69 70 74 85 105 117 126 137 158 175 185
1 4 12 22 23 35 36 61 100 125 166
6 11 12 16 18 64
5 6 7 39 83 103
1 12 14 73
1 10 11 108
1 11 14 30 35 63 64 84 141 153 171 181 182 188
1 4 12 26 27 31 33 46 54 66 79 130 139 149 155 179 180 191
1 5 9 136 141
1 2 8 30 32 49 51 56 87 128 163
5 10 13 50 63 76 102 120 140 198
4 5 13 24 29 30 40 44 62 63 66 68 109 130 132 133 142 177
1 7 23 185
5 8 12 47 198
1 10 19 41 70
5 8 19 33 38 67 77 150 158 187
1 5 8 46 48 59 77 161
1 6 23 88
18 21 23 37 39 48 53 58 61 92 111 123 130 170 185 186
8 10 19 43 88 103 162
7 8 21 36 43 51 56 59 71 78 83 89 96 110 111 115 151 156 180
1 19 27 52 86 116
1 4 5 99
7 13 18 50 94 101 106 188
8 13 32 142 143
1 7 30 49 52 53 55 97 106 175 182
1 6 27 45
11 15 30 69 99
1 12 23 42
1 11 26 55 80 90 105 108 119 146
5 10 40 85 114
5 31 32 56 73 154 176 199
10 11 23 46 51 64 157
6 10 38 148 191
19 28 44 57 66 71 74 119 161 180 200
4 5 25 127 158 167 189
6 28 30 74 79 128 140 171
1 21 37 72 165 178 179
11 22 35 77 89 116
21 32 44
1 33 37 98 193
10 30 37 57 65 81 91 126 168 175 188
1 5 19 127
6 37 41 68 90 93 99 200
21 32 43 59 87 88 115 134 138 144 150 184
4 46 53 82 115
5 9 30 112 124 125 151 169 184 190
28 32 56 65 83 91 107 138
1 2 10 72 120 132
11 13 30 91 126
6 12 23 81 101 111
18 22 23 118 163 173
14 18 44
1 53 59 67 68 132
19 23 46 79 89 95 100 108 118 135 139 183 192
10 27 65 167
23 55 65
7 12 39 86 97 178 181 191
10 12 26 78 80 96 101 160
1 32 46 75 102 146 197
5 49 60
1 16 43
12 46 48 104 137 195 198
6 10 71 143
8 10 22 80 119 153 165 166 181
27 28 50 96 116 174
4 32 70
19 48 66 87 95 100 127 135 136 137 169
41 70 76 152 189
10 53 62 105
1 10 57 177
15 32 59 107
1 11 18 95 152 174
4 12 42
5 33 69 92 101 146 162 173
21 56 79 163
29 31 56
5 32 50 66 121 131 133
6 41 55 98 103 129 143 197
53 59 61 109 110 112 121 148 187
10 30 86
1 4 55 98 117 183
5 7 35 165
66 79 84 113 151
32 70 77 156 189
6 37 69 113
52 90 93 144 172 186
34 39 55 147
13 66 79 113 125 160
35 62 70 86 170
2 22 71
15 31 90 109 114
1 5 74 145
4 12 41 81 195
5 35 37 135 164
8 59 83 122 145
17 41 66 159
23 91 103 128
10 32 91
30 32 62
7 58 91 179
95 97 100
10 42 103 131
32 56 57
33 50 77
1 12 93
8 63 66 155
41 46 76 131
1 22 60
5 89 91
1 11 107 159
1 2 30 149
1 11 58 134 138
13 58 100
12 53 61 142
47 54 79
21 48 109 141 197
1 7 90
19 23 30
89 114 119
5 23 60 65
1 23 89 182
6 56 124 154
66 79 106
1 20 79
12 74 79
56 59 124
10 19 66 162
10 22 48
18 20 128 152 172 193
23 36 126 155 173
36 75 90
4 56 98
2 104 107
41 71 86
2 6 99
8 45 91
1 19 123 171
6 27 56 164
32 58 95 200
80 84 141 157
6 18 76 156 159 176 187
8 43 134
19 118 142 167 186
32 96 153 176 194
1 44 152 166
12 27 47
108 122 153
8 70 100
5 28 46 190
31 86 139 177
21 63 87
10 106 150
49 76 94
13 76 157
47 67 155 168
10 53 167
1 58 79 190
1 30 101 196
18 48 149
7 98 141 192 199
63 86 142
6 77 84
12 37 53 199
43 153 156 194
23 82 162
1 49 69
19 49 112
19 32 46 193
18 69 76
18 37 133 196
10 66 93
3 56 58
12 24 30
30 98 155
27 91 153
18 35 53
47 80 96
58 161 169
11 19 45 69
1 66 172
52 141 180
3 156 176
5 74 105
8 170 182
2 71 90 128
22 25 74
43 172 175
46 55 151
