0 1
0 2
0 3
0 4
0 5
0 6
0 7
0 8
0 9
0 10
0 11
0 12
0 14
0 15
0 16
0 17
0 18
0 19
0 20
1 2
1 3
1 4
1 5
1 6
1 7
1 8
1 9
1 11
1 12
1 13
1 14
1 16
1 17
1 19
1 27
2 3
2 4
2 5
2 7
2 8
2 9
2 10
2 11
2 12
2 13
2 14
2 15
2 16
2 17
2 18
2 19
3 4
3 6
3 7
3 8
3 9
3 10
3 12
3 13
3 14
3 15
3 16
3 17
3 18
3 19
4 5
4 6
4 7
4 10
4 11
4 12
4 14
4 16
4 17
4 18
4 19
5 6
5 8
5 9
5 10
5 11
5 12
5 13
5 14
5 16
5 18
5 19
6 7
6 8
6 9
6 11
6 12
6 14
6 15
6 17
6 19
7 8
7 9
7 10
7 11
7 12
7 13
7 14
7 16
7 18
7 19
8 9
8 10
8 11
8 12
8 13
8 14
8 15
8 17
8 18
8 19
9 10
9 13
9 15
9 16
9 17
9 18
9 19
10 11
10 12
10 13
10 14
10 15
10 16
10 17
10 18
10 19
11 12
11 13
11 14
11 16
11 17
11 18
11 19
12 13
12 15
12 16
12 18
12 19
13 14
13 15
13 16
13 17
13 19
14 15
14 16
14 17
14 18
14 19
15 16
15 17
15 18
15 19
16 17
16 18
16 19
17 18
17 19
18 19
20 21
20 22
20 23
20 24
20 27
20 28
20 30
20 33
20 34
20 35
20 36
20 37
20 38
20 40
21 22
21 23
21 24
21 25
21 26
21 27
21 28
21 30
21 31
21 32
21 34
21 35
21 36
21 37
21 38
21 39
21 47
22 23
22 24
22 25
22 26
22 27
22 29
22 30
22 32
22 33
22 34
22 36
22 37
22 38
22 39
23 24
23 26
23 27
23 28
23 29
23 30
23 31
23 32
23 33
23 34
23 37
23 38
24 25
24 27
24 28
24 29
24 31
24 32
24 34
24 35
24 36
24 37
25 26
25 27
25 28
25 29
25 31
25 32
25 33
25 34
25 35
26 27
26 28
26 30
26 31
26 33
26 36
26 38
27 28
27 29
27 30
27 31
27 32
27 34
27 35
27 38
27 39
28 29
28 31
28 32
28 33
28 35
28 36
28 37
29 30
29 31
29 32
29 33
29 35
29 36
29 37
29 38
29 39
30 31
30 32
30 33
30 35
30 36
30 37
30 38
30 39
31 32
31 33
31 34
31 35
31 36
31 37
31 38
31 39
32 33
32 35
32 36
32 37
32 38
32 39
33 34
33 35
33 36
33 37
33 38
33 39
34 35
34 36
34 37
34 38
34 39
35 36
35 37
35 38
35 39
36 37
36 38
36 39
37 38
37 39
38 39
40 41
40 42
40 43
40 44
40 45
40 46
40 47
40 48
40 49
40 50
40 52
40 53
40 55
40 56
40 57
40 59
40 60
41 42
41 43
41 45
41 51
41 53
41 54
41 55
41 57
41 58
41 59
41 67
42 43
42 44
42 45
42 46
42 47
42 48
42 49
42 50
42 51
42 52
42 53
42 54
42 56
42 57
42 58
43 44
43 46
43 49
43 50
43 51
43 54
43 56
43 57
43 59
44 45
44 47
44 48
44 50
44 52
44 53
44 54
44 55
44 56
44 57
44 58
44 59
45 46
45 47
45 48
45 50
45 52
45 53
45 54
45 55
45 56
45 57
45 58
45 59
46 47
46 48
46 49
46 51
46 52
46 53
46 55
46 56
46 57
46 58
46 59
47 48
47 49
47 51
47 53
47 54
47 55
47 56
47 58
47 59
48 49
48 50
48 51
48 53
48 54
48 56
48 57
48 58
49 50
49 51
49 52
49 54
49 55
49 56
49 57
49 58
50 51
50 52
50 53
50 54
50 55
50 56
50 57
50 58
50 59
51 52
51 53
51 54
51 55
51 56
51 58
51 59
52 53
52 54
52 55
52 56
52 57
52 58
52 59
53 54
53 56
53 57
53 59
54 55
54 56
54 57
55 56
55 59
56 57
56 58
56 59
57 58
57 59
58 59
60 61
60 62
60 63
60 64
60 65
60 66
60 67
60 68
60 70
60 72
60 73
60 74
60 75
60 76
60 78
60 79
60 80
61 62
61 63
61 64
61 65
61 66
61 67
61 68
61 69
61 70
61 71
61 72
61 73
61 74
61 75
61 76
61 77
61 87
62 63
62 66
62 68
62 69
62 70
62 71
62 72
62 73
62 74
62 75
62 76
62 77
62 78
62 79
63 64
63 65
63 66
63 67
63 68
63 69
63 70
63 71
63 72
63 73
63 75
63 76
63 77
63 78
63 79
64 65
64 66
64 69
64 71
64 72
64 73
64 74
64 75
64 76
64 77
64 78
64 79
65 66
65 67
65 69
65 70
65 71
65 72
65 74
65 75
65 76
65 77
65 78
65 79
66 67
66 68
66 69
66 72
66 73
66 75
66 76
66 77
66 78
67 68
67 71
67 73
67 74
67 75
67 76
67 77
67 78
68 69
68 70
68 71
68 72
68 73
68 75
68 79
69 70
69 71
69 72
69 73
69 74
69 75
69 76
69 78
69 79
70 71
70 72
70 73
70 74
70 75
70 76
70 77
70 78
70 79
71 72
71 74
71 76
71 77
71 79
72 73
72 75
72 76
72 78
72 79
73 74
73 77
73 78
73 79
74 75
74 78
74 79
75 76
75 77
75 78
75 79
76 77
76 78
76 79
77 78
78 79
80 81
80 82
80 84
80 86
80 87
80 88
80 90
80 91
80 92
80 93
80 94
80 95
80 96
80 97
80 98
80 99
80 100
81 82
81 83
81 84
81 85
81 87
81 88
81 90
81 92
81 94
81 96
81 97
81 99
81 107
82 83
82 84
82 86
82 87
82 88
82 89
82 90
82 91
82 92
82 93
82 95
82 97
82 98
82 99
83 84
83 85
83 86
83 87
83 88
83 90
83 91
83 92
83 93
83 95
83 96
83 98
83 99
84 85
84 87
84 88
84 90
84 91
84 93
84 94
84 96
84 97
84 99
85 86
85 87
85 88
85 89
85 90
85 91
85 92
85 93
85 94
85 95
85 98
85 99
86 87
86 88
86 89
86 90
86 91
86 92
86 93
86 94
86 95
86 96
86 97
86 98
86 99
87 88
87 89
87 90
87 92
87 93
87 94
87 95
87 96
87 97
87 98
87 99
88 89
88 90
88 91
88 92
88 93
88 94
88 95
88 96
88 99
89 90
89 93
89 94
89 95
89 96
89 99
90 91
90 92
90 93
90 94
90 95
90 96
90 97
90 98
90 99
91 92
91 93
91 95
91 96
91 97
91 98
91 99
92 93
92 94
92 95
92 99
93 94
93 96
93 97
93 98
93 99
94 95
94 96
94 97
94 98
95 96
95 98
95 99
96 97
96 98
96 99
97 98
97 99
98 99
100 101
100 104
100 106
100 107
100 108
100 110
100 111
100 112
100 113
100 114
100 115
100 116
100 117
100 118
100 119
100 120
101 102
101 103
101 104
101 106
101 107
101 108
101 109
101 110
101 111
101 113
101 114
101 116
101 117
101 118
101 127
102 103
102 105
102 106
102 107
102 108
102 109
102 110
102 111
102 113
102 114
102 115
102 117
102 119
103 104
103 105
103 106
103 107
103 108
103 109
103 110
103 111
103 112
103 114
103 115
103 116
103 117
103 118
104 105
104 106
104 108
104 109
104 110
104 111
104 114
104 116
104 117
104 118
104 119
105 106
105 107
105 109
105 110
105 111
105 112
105 113
105 115
105 116
105 117
105 118
105 119
106 107
106 108
106 109
106 110
106 111
106 112
106 114
106 115
106 116
106 117
106 118
107 108
107 111
107 112
107 113
107 114
107 115
107 116
107 117
107 118
107 119
108 109
108 110
108 112
108 113
108 114
108 116
108 117
108 119
109 110
109 112
109 113
109 114
109 115
109 116
109 117
109 119
110 111
110 112
110 113
110 114
110 115
110 116
110 117
110 118
110 119
111 112
111 113
111 114
111 116
111 117
111 118
111 119
112 113
112 114
112 115
112 116
112 117
112 118
112 119
113 114
113 115
113 116
113 117
113 118
113 119
114 115
114 116
114 117
114 119
115 116
115 117
116 117
116 119
117 118
117 119
118 119
120 121
120 122
120 123
120 124
120 127
120 128
120 131
120 132
120 133
120 135
120 136
120 137
120 138
120 139
120 140
121 122
121 123
121 125
121 126
121 127
121 128
121 129
121 130
121 131
121 132
121 133
121 134
121 135
121 137
121 139
121 147
122 123
122 124
122 125
122 126
122 127
122 128
122 129
122 130
122 131
122 132
122 134
122 135
122 136
122 138
122 139
123 124
123 125
123 126
123 128
123 129
123 130
123 131
123 132
123 133
123 134
123 135
123 136
123 138
123 139
124 125
124 126
124 127
124 128
124 129
124 130
124 131
124 132
124 133
124 134
124 137
124 138
125 126
125 127
125 128
125 129
125 130
125 131
125 133
125 134
125 136
125 137
125 138
125 139
126 127
126 128
126 129
126 130
126 131
126 132
126 133
126 134
126 135
126 137
126 138
126 139
127 128
127 129
127 130
127 132
127 133
127 134
127 135
127 136
127 138
128 129
128 131
128 132
128 133
128 134
128 135
128 136
128 137
128 138
128 139
129 130
129 131
129 132
129 133
129 134
129 135
129 136
129 137
129 138
129 139
130 131
130 132
130 134
130 135
130 136
130 138
130 139
131 132
131 134
131 135
131 136
131 137
131 138
131 139
132 133
132 134
132 138
133 134
133 135
133 137
133 138
133 139
134 135
134 136
134 137
134 138
134 139
135 136
135 138
135 139
136 137
137 138
138 139
140 141
140 142
140 143
140 144
140 145
140 146
140 148
140 149
140 150
140 151
140 152
140 153
140 156
140 157
140 158
140 159
141 142
141 144
141 145
141 146
141 147
141 149
141 151
141 152
141 153
141 155
141 156
141 157
141 158
142 143
142 144
142 145
142 146
142 147
142 149
142 151
142 152
142 153
142 155
142 157
142 158
143 144
143 145
143 146
143 147
143 148
143 149
143 150
143 151
143 152
143 155
143 158
143 159
144 145
144 147
144 148
144 149
144 150
144 151
144 152
144 153
144 154
144 156
144 157
144 158
144 159
145 146
145 148
145 150
145 151
145 152
145 153
145 154
145 155
145 158
145 159
146 147
146 148
146 149
146 150
146 151
146 152
146 153
146 154
146 156
146 157
146 158
146 159
147 148
147 150
147 151
147 152
147 153
147 154
147 155
147 156
147 157
147 158
147 159
148 149
148 150
148 151
148 153
148 154
148 156
148 157
148 158
148 159
149 150
149 151
149 153
149 154
150 151
150 152
150 153
150 155
150 156
150 157
150 158
150 159
151 152
151 153
151 155
151 156
151 157
151 158
151 159
152 153
152 154
152 155
152 156
152 158
152 159
153 154
153 155
153 156
153 157
153 158
153 159
154 155
154 156
154 158
154 159
155 156
155 158
155 159
156 157
156 158
157 158
157 159
158 159
