0 1
0 2
0 3
0 4
0 7
0 8
0 12
0 13
0 16
0 17
0 20
0 21
0 22
0 23
0 31
0 36
0 38
0 40
0 47
0 50
0 54
0 55
0 56
0 59
0 60
0 69
0 71
0 74
0 87
0 98
0 101
0 128
0 135
0 147
0 150
0 151
0 173
0 194
0 195
1 4
1 5
1 6
1 11
1 17
1 28
1 32
1 35
1 96
1 149
1 180
2 7
2 8
2 9
2 10
2 11
2 12
2 14
2 15
2 18
2 20
2 21
2 26
2 27
2 29
2 52
2 55
2 58
2 72
2 82
2 83
2 86
2 92
2 94
2 96
2 104
2 108
2 115
2 121
2 123
2 125
2 135
2 141
2 142
2 171
2 191
2 194
3 4
3 5
3 8
3 18
3 19
3 20
3 22
3 106
3 107
3 120
3 125
3 136
3 139
3 157
4 5
4 6
4 12
4 13
4 15
4 16
4 19
4 21
4 26
4 27
4 31
4 33
4 37
4 40
4 48
4 50
4 62
4 68
4 87
4 99
4 102
4 109
4 129
4 150
4 161
4 199
5 6
5 37
5 52
5 59
5 85
5 88
5 110
5 118
5 154
5 163
5 165
5 189
6 7
6 9
6 10
6 11
6 15
6 24
6 30
6 61
6 94
6 97
6 116
6 170
6 190
7 9
7 14
7 27
7 28
7 32
7 56
7 67
7 81
7 118
7 134
7 143
7 175
7 181
7 188
8 14
8 30
8 33
8 41
8 45
8 58
8 62
8 86
8 92
8 104
8 137
8 138
8 139
8 146
8 147
8 150
8 182
9 10
9 18
9 19
9 30
9 31
9 33
9 38
9 44
9 66
9 79
9 93
9 98
9 113
9 128
9 132
9 133
9 155
9 159
9 162
9 175
9 176
9 191
9 198
10 24
10 36
10 53
10 68
10 159
10 172
10 174
11 16
11 23
11 45
11 51
11 55
11 64
11 73
11 78
11 80
11 83
11 85
11 89
11 100
11 112
11 140
11 148
11 195
12 13
12 22
12 47
12 89
12 93
12 121
12 151
12 179
12 186
13 25
13 41
13 65
13 66
13 70
13 165
14 24
14 29
14 39
14 46
14 72
14 77
14 80
14 113
14 116
14 119
14 122
14 131
14 133
14 177
14 178
14 190
15 17
15 26
15 32
15 35
15 46
15 54
15 73
15 82
15 129
15 141
15 152
15 193
16 23
16 42
16 48
16 49
16 63
16 65
16 67
16 71
16 76
16 153
16 164
16 170
16 183
17 34
17 36
17 181
18 25
18 29
18 43
18 57
18 62
18 79
18 145
18 179
19 25
19 49
19 51
19 67
19 102
19 117
19 130
19 160
19 164
19 184
19 187
20 42
20 106
20 120
20 126
20 173
21 42
21 59
21 85
21 155
21 171
22 72
22 122
23 45
23 60
23 69
23 86
24 43
24 44
24 56
24 83
24 99
24 131
24 144
24 145
24 161
24 174
25 43
25 49
25 53
25 69
25 73
25 107
25 166
25 197
26 34
26 39
26 44
26 105
26 114
26 126
26 130
26 156
26 162
26 168
26 190
27 28
27 35
27 46
27 95
27 114
27 157
27 173
27 186
28 48
29 37
29 78
29 88
29 111
29 121
29 143
30 95
30 110
31 40
31 44
31 95
31 144
32 34
32 38
32 41
32 50
32 53
32 87
33 47
33 52
33 70
33 84
33 115
33 167
34 51
34 61
34 75
34 79
34 91
34 99
34 139
35 58
35 90
35 91
35 117
35 133
35 158
36 84
36 97
37 39
37 68
37 88
37 115
37 179
37 193
38 65
38 176
38 189
40 54
40 63
40 90
40 93
40 113
40 129
40 169
41 61
41 71
41 90
41 94
41 134
42 174
43 185
44 70
45 96
46 64
46 80
48 106
48 111
48 123
49 66
49 75
49 110
49 144
49 152
49 171
50 152
51 57
51 64
53 84
53 164
53 178
53 184
54 74
54 77
54 98
54 135
54 198
55 60
55 114
55 136
55 154
55 178
55 183
56 57
56 77
56 125
56 145
56 163
57 81
57 127
57 156
57 184
57 195
58 76
58 103
58 105
58 146
58 160
58 187
59 76
60 63
61 187
62 74
62 103
62 109
62 137
62 180
63 93
63 109
64 102
64 132
64 178
65 78
66 188
67 120
68 127
68 176
69 89
69 138
70 82
70 111
70 124
70 126
70 166
70 193
72 136
72 138
72 155
73 100
73 140
74 75
75 148
76 81
76 91
76 97
76 101
76 154
76 158
77 100
77 104
77 124
78 108
78 163
79 167
80 119
80 137
80 188
81 112
81 132
81 151
82 192
83 142
84 192
85 156
87 92
87 119
87 122
87 130
88 146
89 143
89 185
90 116
91 101
91 196
92 117
93 103
93 107
93 127
93 140
93 169
94 124
94 167
94 191
96 182
97 108
98 128
98 161
100 197
102 123
103 105
103 141
103 142
103 160
103 181
103 183
105 149
105 177
106 112
106 168
107 168
107 177
109 196
111 167
113 149
117 118
117 153
117 199
121 147
121 172
123 131
125 186
126 134
126 153
128 172
129 170
133 169
134 148
136 197
138 157
138 159
146 165
147 158
148 154
148 180
149 166
151 162
153 199
157 185
161 198
165 175
167 192
174 182
174 194
179 189
193 196
197 198
