200 597
2 3 4 5 8 9 13 14 17 18 21 22 23 24 32 37 39 41 48 51 55 56 57 60 61 70 72 75 88 99 102 129 136 148 151 152 174 195 196
1 5 6 7 12 18 29 33 36 97 150 181
1 8 9 10 11 12 13 15 16 19 21 22 27 28 30 53 56 59 73 83 84 87 93 95 97 105 109 116 122 124 126 136 142 143 172 192 195
1 5 6 9 19 20 21 23 107 108 121 126 137 140 158
1 2 4 6 7 13 14 16 17 20 22 27 28 32 34 38 41 49 51 63 69 88 100 103 110 130 151 162 200
2 4 5 7 38 53 60 86 89 111 119 155 164 166 190
2 5 6 8 10 11 12 16 25 31 62 95 98 117 171 191
1 3 7 10 15 28 29 33 57 68 82 119 135 144 176 182 189
1 3 4 15 31 34 42 46 59 63 87 93 105 138 139 140 147 148 151 183
3 7 8 11 19 20 31 32 34 39 45 67 80 94 99 114 129 133 134 156 160 163 176 177 192 199
3 7 10 25 37 54 69 160 173 175
2 3 7 17 24 46 52 56 65 74 79 81 84 86 90 101 113 141 149 196
1 3 5 14 23 48 90 94 122 152 180 187
1 5 13 26 42 66 67 71 166
3 8 9 25 30 40 47 73 78 81 114 117 120 123 132 134 178 179 191
3 5 7 18 27 33 36 47 55 74 83 130 142 153 194
1 5 12 24 43 49 50 64 66 68 72 77 154 165 171 184
1 2 16 35 37 182
3 4 10 26 30 44 58 63 80 146 180
4 5 10 26 50 52 68 103 118 131 161 165 185 188
1 3 4 43 107 121 127 174
1 3 5 43 60 86 156 172
1 4 13 73 123
1 12 17 46 61 70 87
7 11 15 44 45 57 84 100 132 145 146 162 175
14 19 20 44 50 54 70 74 108 167 198
3 5 16 35 40 45 106 115 127 131 157 163 169 191
3 5 8 29 36 47 96 115 158 174 187
2 8 28 49
3 15 19 38 79 89 112 122 144
7 9 10 96 111
1 5 10 41 45 96 145
2 8 16 35 39 42 51 54 88
5 9 10 48 53 71 85 116 168
18 27 33 52 62 76 80 92 100 140
2 16 28 59 91 92 118 134 159
1 11 18 85 98
5 6 30 40 69 89 116 180 194
1 10 33 66 177 190
15 27 38
1 5 32 55 64 91 94 114 130 170
9 14 33 62 72 91 95 135
17 21 22 175
19 25 26 186
10 25 27 32 71
9 12 24 97
15 16 28 65 81
1 13 34
5 17 29 107 112 124
17 20 26 67 76 111 145 153 172
1 5 33 153
12 20 35 58 65
3 6 34
11 26 33 85 165 179 185
1 16 41 75 78 99 136 199
1 3 12 61 115 137 155 179 184
1 8 25 58 78 126 146 164
19 52 57 82 128 157 185 196
3 9 36 77 104 106 147 161 188
1 6 22 77
1 24 56 64
7 35 42 188
5 9 19 75 104 110 138 181
17 41 61 94 110
12 47 52 103 133 179
14 17 39 79
10 14 50 189
8 17 20 121
5 11 38 128 177
1 24 26 90 139
14 34 45 83 112 125 127 167 194
1 17 42
3 15 23 137 139 156
12 16 26 101 141
1 55 63 76
35 50 75 149
17 59 60 82 92 98 102 155 159
15 55 57 101 105 125
12 30 66 109 164
10 19 35 168
12 15 47 120 138 189
8 58 77 113 133 152
3 16 71 193
3 12 25 143
34 37 54 193
6 12 22 157
3 9 24
1 5 33 93 120 123 131
6 30 38 147
12 13 70 144 186
36 41 42 117
35 36 77 102 197
3 9 88 118
10 13 41 64 104 108 128 141 170
3 7 42 125 168 192
28 31 32
2 3 46 183
7 37 77 109
1 10 55 129 162
5 25 35
12 74 78 198
1 77 92
5 20 65 124
59 63 94 106 142 143 161 182 184
3 9 78
27 59 104 150 178
4 21 49 113 169
4 26 94 169 178
3 79 98
5 63 64 197
6 31 50
30 49 71 168
12 82 107
10 15 41 150
27 28 56
3 34 38
7 15 91
20 36 93 119 154 200
6 8 118
15 81 88
4 21 68
3 13 30 148 173
15 23 88
3 49 103 132
71 78 95
3 4 57 187
21 27 71 135 154
58 69 94
1 10 99 173
5 16 41 171
20 27 88
15 25 124
10 65 82
10 15 36 170
8 42 127 149
1 3 55
4 56 73 198
9 63 81
9 70 73 158 160
4 9 35
12 74 94
3 16 104
3 84 104
8 30 90
25 32 50
19 25 57
9 59 89 166
1 9 122 159
12 76 135 155 181
2 106 114 167
1 5 9
1 13 82 163
16 50 51
17 118 127 200
6 56 77 149
10 22 73
27 58 86
4 28 139 186
36 77 148
10 11 139
20 59 104
5 25 99 199
10 27 152
6 57 79
17 20 54
6 14 147 176
26 71 150
34 80 95 112 193
27 107 108
41 94 134
7 17 130
3 22 50
11 122 129
1 21 28
11 25 43 183 195
8 10 166
10 39 69
15 106 108
15 54 56 65
13 19 38 190
2 63 149
8 18 104
9 97 175
17 56 104
20 54 58
44 90 158
13 28 126
20 59 62
8 67 81
6 39 180
7 15 27
3 10 95
83 85 168
16 38 71 197
1 3 175
1 12 58
92 110 194
26 101 137 199
10 55 162 198
5 118 154
