160 643
5 8 16 17 21 23 25 27 35 67 140 150
3 8 26 40 127
2 17 28 40
15 17 38 68
1 9 10 12 14 19 21 36
8 15 16 21 22 27 28 32 39 48 50 68
13 14 20 26 29 39 138
1 2 6 9 23 25 29 35 39
5 8 10 12 19 24 40
5 9 11 15 23 29 32 35 36 39 89 143
10 13 16 25 31 37 40 95 132
5 9 20 21 25 31 111
7 11 14 17 20 25 26 31
5 7 13 16 20 25
4 6 10 24 29 31 33 35 64
1 6 11 14 17 18 23 25 26 34 41 101
1 3 4 13 16 18 23 25 30 31 68 101
16 17 19 20 23 28 29 32 34 130
5 9 18 24 28 36 37 42 78
7 12 13 14 18 26 32 35 38 134
1 5 6 12 22 24 26 28 39 77 79
6 21 24 34 36 37 38 40 122
1 8 10 16 17 18 24 35 37 113
9 15 19 21 22 23 26 38 69 78 81 137
1 8 11 12 13 14 16 17 27 30
2 7 13 16 20 21 24 35
1 6 25 39 79 147
3 6 18 19 21 37 40 76 150
7 8 10 15 18 133
17 25 31 34 158
11 12 13 15 17 30 37 148
6 10 18 20 53
15 34 36 38 39 84
16 18 22 30 33 36 40
1 8 10 15 20 23 26 36
5 10 19 22 33 34 35 40 89 122 155
11 19 22 23 28 31 150
4 20 22 24 33
6 7 8 10 21 27 33 123
2 3 9 11 22 28 34 36 79 143
16 48 49 50 55 63 69 71 119
19 55 60 62 63 66 70 77
46 50 52 79 80
48 62 72 74 75 76 77 79
48 54 64 66 71 114
43 47 50 52 55 58 59 67 78
46 48 51 53 77 110
6 41 44 45 47 52 54 65 66 72 77 150
41 57 60 67 68 73 79 110 121
6 41 43 46 56 57 64 68
47 58 69 72 73 77 155
43 46 48 59 64 65 74 76
32 47 54 58 70 73
45 48 53 55 56 59 60 63 65 71 80 83 112
41 42 46 54 77
50 54 65 70 72 120 132
49 50 58 62 65 67
46 51 53 57 70 75 82
46 52 54 60 62 76 79 136
42 49 54 59 69 76 77 78
62 64 70
42 44 57 59 61 67 70 73 125
41 42 54 66 67 68 69 76 94
15 45 50 52 61 69 76 78 126 127
48 52 54 56 57 68 70 73 74 79 146
42 45 48 63 69 71 79 94
1 46 49 57 62 63 69 79 80 98
4 6 17 49 50 63 65 74 77 78 104
24 41 51 60 63 64 66 67 94 141
42 53 56 58 61 62 65 72
41 45 54 66 73 74 77 128
44 48 51 56 70 75 91 92
49 51 53 62 65 71 74 75 134 143
44 52 65 68 71 73 116
44 58 72 73 77
28 44 52 59 60 63 64 79 152
21 42 44 47 48 51 55 60 68 71 75 87 160
19 24 46 60 64 68 122
21 27 40 43 44 49 59 65 66 67 76 151
43 54 67
24 84 86 96 97 100 107 110 119
58 101 116 118
54 92 97 112 114 118 159
33 81 87 90 91 93 97 100 102 106 109 112 116 133
93 96 105 107 118
81 91 94 95 96 97 106 108 114 115 119
77 84 93 99 101 104 105 107 113 119
91 94 105 106 118 119 124
10 36 93 109 115 117
84 91 97 99 111 114 115 120 160
72 84 86 88 90 95 100 110 112
72 83 93 96 97 108 109 111 120 124
84 85 87 89 92 102 115
63 66 69 86 88 110 112
11 86 91 103 107 110 117 119
81 85 86 92 101 108 111 113 118
81 83 84 86 90 92 116 152
67 100 110 116 119
87 90 101 111 112 113
81 84 91 98 110 118
16 17 82 87 96 99 102 105 106 111 117 122 140
84 93 101 105 106 112 114
95 118 119 136
68 87 111 114 117 118
85 87 88 101 102 110 113 114 115
84 86 88 101 102 108 115
81 85 87 95 113 114
86 92 96 106 113 114 137
84 89 92 111
47 49 81 91 94 95 98 100 105 111 114
12 90 92 96 99 101 104 109 110
54 83 84 91 94 99 102 114 120
23 87 96 99 105 107 108 117
45 83 86 90 102 104 105 107 108 110 112 115 123
86 89 90 93 105 106 114 125
74 82 84 97 98 145
89 95 101 104 113 120
82 83 85 88 96 100 103 104
41 81 86 87 88 95 98 103
56 90 92 112 117
49 130 133 135 153
22 36 78 101 124 133 138 139 147 158 159
39 114 129 131 135 136 137 142 150 155 157
88 92 122 144 147 159
62 115 132 133 140 147 153
64 130 131 135 143 145 148 155
2 64 128 137 138 140 157 158
71 127 134 146 151 155
123 133 135 138 149 151 152
18 121 126 137
123 126 138 143 144
11 56 125 142 146 153 159
29 84 121 122 125 129 139 140 141 150
20 73 128 140 142 145 151 157 158
121 123 126 129 137 142 144 148 150 155 157 159
59 103 123 151 153 155
24 108 123 127 130 135 143 149 156
7 122 127 129 131 140 141 147 151 152 156 159
122 133 143 144 154
1 101 125 127 133 134 138 147 151 152 154 156 157 158 159
69 133 138 147 153 156 159
123 132 134 135 150
10 40 73 126 131 137 139 148 150 151 156
124 131 135 139 147 154 155 159
116 126 134 147 148 154 158 159
65 128 132 152 157
27 122 124 125 138 140 141 144 145 151 152 157
31 126 135 143 145
129 137 151
1 28 37 48 123 133 135 142 143
79 128 129 134 136 138 140 143 147 149
76 97 129 138 140 146 147 154 158 160
121 125 132 136 141 160
139 140 144 145 152 158 159
36 51 123 126 128 135 136 144 159
137 138 140 141 143 157
123 127 134 135 140 146 147 156
30 122 127 134 140 145 152 154
83 122 124 132 135 138 140 141 144 145 154 155
77 90 152 153
