350 1659
3 4 6 14 18 24 25 27 30 32 35 37 42 45 46 47 48 49 52 55 56 58 60 63 67 70 71 74 79 80 82 263
6 8 11 12 13 14 16 17 21 23 31 32 34 37 38 39 45 52 53 57 65 66 69 71 72 74 76 81 86 180 319
1 5 6 8 12 16 19 20 25 32 35 36 38 41 46 51 54 55 56 61 62 63 64 69 72 74 75 76 79 80 86 226
1 5 8 10 13 15 18 20 21 25 37 39 41 42 43 45 46 51 52 57 59 60 62 63 66 67 69 70 76 77 84 85
3 4 9 10 15 16 17 22 24 28 33 36 44 46 48 49 54 55 58 59 64 69 79 87 88
1 2 3 7 9 12 15 19 21 24 25 26 28 29 31 32 33 34 35 37 42 46 47 51 57 59 62 64 67 69 72 73 77 79 86 87 88 91 127 172 212 243 257 265 267
6 10 12 17 18 19 21 22 24 25 29 31 32 34 40 43 49 50 51 55 58 63 64 66 67 68 69 76 78 83 84 151 335
2 3 4 9 11 13 19 20 21 23 25 28 31 32 43 44 48 49 55 56 61 62 63 68 69 74 75 78 79 80 83 84 85 86 111 190 224 293 334 337
5 6 8 11 12 13 14 19 27 29 31 39 45 46 47 48 51 52 55 56 61 64 66 68 70 72 85 86 87 201 275 350
4 5 7 21 22 27 29 30 32 36 37 38 39 43 45 46 51 59 61 62 66 75 76 77 80 85 87 312
2 8 9 15 16 18 20 24 29 31 33 35 45 48 51 57 58 62 64 69 70 74 76 77 78 81 85 87
2 3 6 7 9 14 21 22 25 28 30 33 37 38 40 45 48 52 54 57 58 59 62 64 65 69 72 73 80 85 88 103 107
2 4 8 9 16 21 23 26 30 31 37 42 43 49 53 58 63 67 68 69 71 75 76 77 78 82 84 85 86 87 138 249 302
1 2 9 12 17 18 20 23 24 27 34 36 39 40 47 48 49 50 52 54 55 58 62 73 75 79 81 82 85 86 88 155 179 296
4 5 6 11 18 19 25 26 38 39 40 43 44 49 51 53 62 65 67 69 74 77 78 80 86 87 210 279
2 3 5 11 13 17 18 22 27 30 33 39 44 46 49 51 53 55 60 64 66 71 74 76 83 85 86 87 259
2 5 7 14 16 22 33 36 38 42 43 50 53 57 61 62 63 64 68 71 74 80 85 87 152 174 260
1 4 7 11 14 15 16 20 22 24 25 27 28 30 32 36 37 38 42 44 49 50 53 57 61 62 64 74 77 80 81 84 85
3 6 7 8 9 15 21 24 25 27 28 33 35 40 41 42 44 49 50 53 54 56 61 65 67 68 70 71 72 73 74 77 80 81 82 109 136 156 341
3 4 8 11 14 18 22 25 28 29 32 34 36 37 42 43 44 48 49 53 59 60 62 65 66 68 72 74 75 79 80 81 86 87 130 139 153 171 186 206
2 4 6 7 8 10 12 13 19 24 27 30 33 35 36 45 49 50 52 54 55 67 75 77 78 86 311
5 7 10 12 16 17 18 20 24 27 28 29 43 45 47 49 52 53 55 56 57 62 65 66 69 73 75 76 77 83 84 87 266
2 8 13 14 26 27 28 31 34 35 39 41 45 46 49 57 58 60 61 62 63 66 69 74 75 78 84 87 88 255
1 5 6 7 11 14 18 19 21 22 32 35 36 37 44 49 51 57 61 66 67 68 73 75 76 77 81 82 83 84 85 86 88 273
1 3 4 6 7 8 12 15 18 19 20 28 30 34 35 40 41 45 50 52 55 58 59 60 61 65 67 68 72 73 76 77 85 86 97 154 166 238 313 347 349
6 13 15 23 30 31 33 34 35 37 40 41 43 44 45 46 52 53 56 58 59 60 61 65 66 68 70 77 78 81 83 84 86
1 9 10 14 16 18 19 21 22 23 32 34 39 45 49 52 59 64 65 70 71 73 76 78 79 80 81 83 85 246
5 6 8 12 18 19 20 22 23 25 35 36 38 39 46 50 52 54 55 57 59 60 65 67 69 79 80 83 88 340
6 7 9 10 11 20 22 36 39 41 42 44 47 50 52 55 58 61 62 65 66 75 76 77 83 87 88 164 232 252 318 332
1 10 12 13 16 18 21 25 26 35 36 37 38 43 44 46 49 50 51 56 58 62 70 71 73 74 75 78 80 81 84 86 94 98 117 131 204 244 251 276 306
2 6 7 8 9 11 13 23 26 34 35 36 38 40 46 50 53 59 61 65 66 67 69 78 80 81 83 84 86 88 269
1 2 3 6 7 8 10 18 20 24 27 33 38 40 45 58 61 63 64 65 70 73 74 76 80 207 309
5 6 11 12 16 17 19 21 26 32 35 40 43 45 46 49 50 51 53 55 56 58 60 61 62 63 66 75 76 78 79 83 85 87 143 315 339
2 6 7 14 20 23 25 26 27 31 35 38 42 45 48 49 50 51 53 54 55 56 58 59 63 64 65 66 67 70 74 77 84 101 134 173 198 288 291 317
1 3 6 11 19 21 23 24 25 26 28 30 31 33 34 37 38 40 42 44 45 46 48 49 50 53 55 56 59 61 62 67 68 69 70 72 73 74 75 78 80 81 86 289 298 301 323
3 5 10 14 17 18 20 21 24 28 29 30 31 39 41 46 48 52 53 57 61 62 68 72 74 75 77 78 81 83 85 86 89 121 208 254 264 292 304 327
1 2 4 6 10 12 13 18 20 24 26 30 35 38 39 41 44 48 49 51 57 67 68 75 76 78 80 81 82 85 86 88 286
2 3 10 12 15 17 18 28 30 31 32 34 35 37 39 42 43 44 45 46 48 49 50 52 53 54 56 63 64 65 68 70 71 74 77 83 84 85 102 110 128 160 248 294
2 4 9 10 14 15 16 23 27 28 29 36 37 38 43 44 49 51 52 53 54 57 59 62 66 67 70 71 75 77 78 81 82 220
7 12 14 15 19 25 26 31 32 33 35 42 47 49 50 52 54 61 63 65 70 71 75 79 82 83 87 123 133 175
3 4 19 23 25 26 29 36 37 46 48 49 53 56 63 64 65 67 71 75 81 85 119 176
1 4 6 13 17 18 19 20 29 34 35 38 40 43 50 51 52 54 55 59 61 62 65 66 67 71 75 77 78 80 84 85 86 87 88 126 178 217 262 325 342
4 7 8 10 13 15 17 20 22 26 30 33 38 39 42 47 51 55 59 61 63 64 65 66 70 72 73 74 75 76 78 79 83 87 88 209 282
5 8 15 16 18 19 20 24 26 29 30 35 37 38 39 45 47 49 51 55 56 60 61 63 79 80 86 87 88 106 184
1 2 4 9 10 11 12 21 22 23 25 26 27 32 33 34 35 38 44 48 50 52 55 57 63 69 71 75 77 79 80 81 86 307
1 3 4 5 6 9 10 16 23 26 28 30 31 33 35 36 38 41 47 55 56 59 65 68 72 73 74 80 82 87 88 227 250
1 6 9 14 22 29 40 43 44 46 48 53 58 59 61 63 64 65 66 69 74 76 83 85 86 146 193 241
1 5 8 9 11 12 14 20 34 35 36 37 38 41 45 47 49 53 57 58 59 62 64 67 71 74 75 82 87 99 163
1 5 7 8 13 14 15 16 18 19 20 21 22 23 24 27 30 33 34 35 37 38 39 40 41 44 48 50 55 59 60 61 62 63 64 66 71 72 76 78 79 80 82 83 87 88 92 129 177 284 285
7 14 17 18 19 21 25 28 29 30 31 33 34 35 38 40 42 45 49 51 53 57 59 69 75 79 84 86
3 4 6 7 9 10 11 15 16 24 30 33 34 37 39 42 43 44 50 52 53 57 58 59 60 63 65 66 67 73 76 82 83 84 87 88 105 200
1 2 4 9 12 14 21 22 25 26 27 28 29 36 38 39 40 42 45 51 54 60 62 65 70 73 76 77 79 85
2 13 15 16 17 18 19 20 22 26 31 33 34 35 36 38 39 41 47 48 50 51 55 59 60 64 66 67 69 72 77 79 82 84 85 86 87 95 195 218 234 274
3 5 12 14 19 21 28 34 38 39 40 42 52 56 61 63 66 69 72 73 75 78 79 80 84 86 87 185 187 338
1 3 5 7 8 9 14 16 21 22 25 28 29 33 34 35 42 43 44 45 46 49 53 56 57 60 61 63 70 71 73 75 77 78 79 84 85 88 104 182 215 230 314 333
1 3 8 9 19 22 26 30 33 34 35 38 41 44 46 54 55 58 60 62 67 70 73 76 77 80 83 88 118 120
2 4 6 11 12 17 18 22 23 24 28 36 37 39 45 48 50 51 55 61 63 69 81 82 86 108 124 219 281 346
1 5 7 11 12 13 14 23 25 26 29 30 32 33 34 47 48 51 56 62 65 66 70 71 79 80 83 86 87 158 161
4 5 6 10 12 20 25 26 27 28 31 34 35 39 42 43 46 47 48 49 50 51 53 61 68 69 71 72 73 74 75 78 79 80 82 88 141 205 287
1 4 16 20 23 25 26 28 33 44 49 51 52 53 55 56 61 63 65 66 67 69 70 74 77 78 79 82 245
3 8 9 10 17 18 19 23 24 25 26 29 31 32 33 35 36 40 42 43 44 47 49 54 55 57 59 60 62 63 69 70 73 74 78 82 83 84 85 168 199 223 272
3 4 6 8 10 11 12 14 15 17 18 20 22 23 29 30 33 35 36 39 42 48 49 52 56 58 61 63 76 79 81 84 85 86 87 88 150 344
1 3 4 7 8 13 17 23 32 33 34 38 40 41 43 44 45 47 49 51 54 55 57 60 61 62 66 68 71 74 75 76 82 83 84 86 140 170 214 295
3 5 6 7 9 11 12 16 17 18 27 32 34 38 41 43 47 48 49 53 65 66 67 70 71 72 82 83 84
2 12 15 19 20 22 25 26 27 28 29 31 32 34 38 40 41 42 43 46 47 51 52 58 60 64 67 68 70 71 72 73 74 75 81 82 87 253 343
2 4 7 9 10 16 20 22 23 24 26 29 31 33 34 39 42 43 47 49 51 53 54 58 60 63 64 69 73 77 78 79 82 83 84 86 88 157 203 225 270 336
1 4 6 7 13 15 19 21 24 25 28 31 34 35 37 39 41 42 48 51 53 56 60 64 65 69 72 75 83 86 216
7 8 9 13 17 19 20 24 25 26 35 36 37 38 46 59 63 65 69 72 77 80 82 85 87 88 147 189
2 3 4 5 6 7 8 11 12 13 15 22 23 28 31 35 45 47 50 53 54 57 59 60 61 66 67 68 70 76 78 83 84 85 88 122 135 148
1 4 9 11 19 26 27 30 32 34 35 38 39 40 43 52 55 56 58 60 61 64 65 69 72 74 75 79 80 81 82 83 84 85
1 2 13 16 17 19 27 30 38 39 40 41 42 45 48 49 55 58 59 63 64 65 72 73 75 78 81 82 84 85 86 88 116 167 194 197 211
2 3 6 9 12 19 20 25 35 36 43 46 49 53 54 59 64 65 67 68 70 71 73 75 78 84 85 88 90 100 192 236
6 12 14 19 22 24 25 27 30 32 35 43 46 51 52 54 55 56 59 61 65 66 71 72 78 82 83 84 88 93
1 2 3 8 11 15 16 17 18 19 20 23 30 32 34 35 36 38 43 46 47 48 59 60 61 63 65 70 85 86 87 88 137 183 213 300
3 8 10 13 14 20 21 22 23 24 29 30 33 35 36 37 39 40 41 42 43 45 48 50 54 55 59 63 65 67 70 71 72 77 79 81 84 85 86 144 247 261 277 278 345
2 3 4 7 10 11 13 16 22 24 25 27 29 32 33 37 43 47 49 51 52 56 62 63 69 81 83 84 85 86 88 145
4 6 10 11 13 15 18 19 21 22 24 25 26 29 34 36 38 39 42 45 52 53 55 56 60 66 68 75 78 181 320
7 8 11 13 15 21 23 26 27 30 31 33 35 36 37 39 42 43 49 54 55 59 60 61 66 69 71 72 73 77 79 80 83 87
1 3 5 6 8 14 20 27 28 33 40 43 44 45 49 50 52 53 54 55 58 59 60 62 66 70 75 78 81 85 86 87 125 222 231 239 316
1 3 8 10 12 15 17 18 19 20 27 28 30 31 32 35 37 42 44 45 46 49 54 56 58 59 68 70 78 81 83 85 86 87 96 115 162 228 328
2 11 14 18 19 20 24 26 27 30 31 35 36 37 39 41 45 57 62 65 70 71 75 76 79 80 84 85 113 188 191 303 310
1 13 14 19 24 37 39 40 46 48 49 51 53 57 59 60 61 63 64 65 66 68 70 71 73 85 87 149
7 8 16 22 24 26 27 28 29 31 33 36 38 40 43 47 49 51 56 58 61 63 64 66 67 69 70 73 76 78 80 84 85 87 233
4 7 8 13 18 22 23 24 26 30 31 34 38 42 50 51 53 54 55 61 62 63 64 66 69 70 71 72 73 75 76 81 83 86 88 229 280
4 8 9 10 11 12 13 14 16 17 18 24 25 27 33 36 37 38 41 42 47 52 53 55 61 62 68 69 70 71 72 74 75 76 79 80 81 82 83 88 132 142 165 169 256 268 283
2 3 6 8 9 13 14 15 16 20 21 24 25 26 30 31 35 36 37 42 44 45 47 50 53 54 57 58 62 63 66 67 71 74 75 76 79 80 84 87 112
5 6 9 10 11 13 15 16 17 20 22 23 29 33 40 42 43 44 46 48 49 51 53 54 58 62 65 68 74 78 79 80 82 83 86 88 159 271
5 6 12 14 23 24 28 29 31 37 42 43 44 46 49 51 55 56 59 62 66 68 69 71 72 73 74 76 84 85 87 114 322
36
72
6
49
73
30
53
80
25
30
48
72
34
38
12
55
51
44
12
57
19
38
8
86
81
88
80
71
30
56 331
41
56
36
69
40
57
79
42
6
38
49
20
30
85
40
34
69
19
74
13
20
63
59
85
33
75
76
47
68
69
82
62
7
17 202
20
25
14
19
66
58
87 297
38
58
80
48
29
85
25
71
61 305
85 258
63
20
6
34
17
40
41
49
42 235
14 299
2
77
55
74
44
54
20
54
81 348
68
8
81
72
47
71
53 196
195 221
71
34
61
51
9
152
66
30 330
59 290
20 329
32
36
43
15
71
6 237
74 240
63
55
67
42
53
57 326
39
196
79
61
8
66
3
46
80
84
55
79
29 242
83
53
178
72
212
25
79
213
47
232
6
30
60
27
75
38
13
46
30
29
65
36
23
85
6
169
16
17
75
42
1 308
36
6
22
6
85
31
66
87
61
24
53
9
30
75
75
15
84
57
43
85
49
49 324
37
59 321
34
35
205
34
36
8
38
63
14
159
35
179
74
35
13
81
36
168
30
45
263
32
81
21
10
25
55
33
79
34
29
2
77
287
88
35
285
42
219
36
80
206
204
118
29
55
8
7
66
8
54
33
28
19
42
65
62
75
57
25
188
25
9
