0 2
0 3
0 5
0 13
0 17
0 23
0 24
0 26
0 29
0 31
0 34
0 36
0 41
0 44
0 45
0 46
0 47
0 48
0 51
0 54
0 55
0 57
0 59
0 62
0 66
0 69
0 70
0 73
0 78
0 79
0 81
0 262
1 5
1 7
1 10
1 11
1 12
1 13
1 15
1 16
1 20
1 22
1 30
1 31
1 33
1 36
1 37
1 38
1 44
1 51
1 52
1 56
1 64
1 65
1 68
1 70
1 71
1 73
1 75
1 80
1 85
1 179
1 318
2 4
2 5
2 7
2 11
2 15
2 18
2 19
2 24
2 31
2 34
2 35
2 37
2 40
2 45
2 50
2 53
2 54
2 55
2 60
2 61
2 62
2 63
2 68
2 71
2 73
2 74
2 75
2 78
2 79
2 85
2 225
3 4
3 7
3 9
3 12
3 14
3 17
3 19
3 20
3 24
3 36
3 38
3 40
3 41
3 42
3 44
3 45
3 50
3 51
3 56
3 58
3 59
3 61
3 62
3 65
3 66
3 68
3 69
3 75
3 76
3 83
3 84
4 8
4 9
4 14
4 15
4 16
4 21
4 23
4 27
4 32
4 35
4 43
4 45
4 47
4 48
4 53
4 54
4 57
4 58
4 63
4 68
4 78
4 86
4 87
5 6
5 8
5 11
5 14
5 18
5 20
5 23
5 24
5 25
5 27
5 28
5 30
5 31
5 32
5 33
5 34
5 36
5 41
5 45
5 46
5 50
5 56
5 58
5 61
5 63
5 66
5 68
5 71
5 72
5 76
5 78
5 85
5 86
5 87
5 90
5 126
5 171
5 211
5 242
5 256
5 264
5 266
6 9
6 11
6 16
6 17
6 18
6 20
6 21
6 23
6 24
6 28
6 30
6 31
6 33
6 39
6 42
6 48
6 49
6 50
6 54
6 57
6 62
6 63
6 65
6 66
6 67
6 68
6 75
6 77
6 82
6 83
6 150
6 334
7 8
7 10
7 12
7 18
7 19
7 20
7 22
7 24
7 27
7 30
7 31
7 42
7 43
7 47
7 48
7 54
7 55
7 60
7 61
7 62
7 67
7 68
7 73
7 74
7 77
7 78
7 79
7 82
7 83
7 84
7 85
7 110
7 189
7 223
7 292
7 333
7 336
8 10
8 11
8 12
8 13
8 18
8 26
8 28
8 30
8 38
8 44
8 45
8 46
8 47
8 50
8 51
8 54
8 55
8 60
8 63
8 65
8 67
8 69
8 71
8 84
8 85
8 86
8 200
8 274
8 349
9 20
9 21
9 26
9 28
9 29
9 31
9 35
9 36
9 37
9 38
9 42
9 44
9 45
9 50
9 58
9 60
9 61
9 65
9 74
9 75
9 76
9 79
9 84
9 86
9 311
10 14
10 15
10 17
10 19
10 23
10 28
10 30
10 32
10 34
10 44
10 47
10 50
10 56
10 57
10 61
10 63
10 68
10 69
10 73
10 75
10 76
10 77
10 80
10 84
10 86
11 13
11 20
11 21
11 24
11 27
11 29
11 32
11 36
11 37
11 39
11 44
11 47
11 51
11 53
11 56
11 57
11 58
11 61
11 63
11 64
11 68
11 71
11 72
11 79
11 84
11 87
11 102
11 106
12 15
12 20
12 22
12 25
12 29
12 30
12 36
12 41
12 42
12 48
12 52
12 57
12 62
12 66
12 67
12 68
12 70
12 74
12 75
12 76
12 77
12 81
12 83
12 84
12 85
12 86
12 137
12 248
12 301
13 16
13 17
13 19
13 22
13 23
13 26
13 33
13 35
13 38
13 39
13 46
13 47
13 48
13 49
13 51
13 53
13 54
13 57
13 61
13 72
13 74
13 78
13 80
13 81
13 84
13 85
13 87
13 154
13 178
13 295
14 17
14 18
14 24
14 25
14 37
14 38
14 39
14 42
14 43
14 48
14 50
14 52
14 61
14 64
14 66
14 68
14 73
14 76
14 77
14 79
14 85
14 86
14 209
14 278
15 16
15 17
15 21
15 26
15 29
15 32
15 38
15 43
15 45
15 48
15 50
15 52
15 54
15 59
15 63
15 65
15 70
15 73
15 75
15 82
15 84
15 85
15 86
15 258
16 21
16 32
16 35
16 37
16 41
16 42
16 49
16 52
16 56
16 60
16 61
16 62
16 63
16 67
16 70
16 73
16 79
16 84
16 86
16 151
16 173
16 259
17 19
17 21
17 23
17 24
17 26
17 27
17 29
17 31
17 35
17 36
17 37
17 41
17 43
17 48
17 49
17 52
17 56
17 60
17 61
17 63
17 73
17 76
17 79
17 80
17 83
17 84
18 20
18 23
18 24
18 26
18 27
18 32
18 34
18 39
18 40
18 41
18 43
18 48
18 49
18 52
18 53
18 55
18 60
18 64
18 66
18 67
18 69
18 70
18 71
18 72
18 73
18 76
18 79
18 80
18 81
18 108
18 135
18 155
18 340
19 21
19 24
19 27
19 28
19 31
19 33
19 35
19 36
19 41
19 42
19 43
19 47
19 48
19 52
19 58
19 59
19 61
19 64
19 65
19 67
19 71
19 73
19 74
19 78
19 79
19 80
19 85
19 86
19 129
19 138
19 152
19 170
19 185
19 205
20 23
20 26
20 29
20 32
20 34
20 35
20 44
20 48
20 49
20 51
20 53
20 54
20 66
20 74
20 76
20 77
20 85
20 310
21 23
21 26
21 27
21 28
21 42
21 44
21 46
21 48
21 51
21 52
21 54
21 55
21 56
21 61
21 64
21 65
21 68
21 72
21 74
21 75
21 76
21 82
21 83
21 86
21 265
22 25
22 26
22 27
22 30
22 33
22 34
22 38
22 40
22 44
22 45
22 48
22 56
22 57
22 59
22 60
22 61
22 62
22 65
22 68
22 73
22 74
22 77
22 83
22 86
22 87
22 254
23 31
23 34
23 35
23 36
23 43
23 48
23 50
23 56
23 60
23 65
23 66
23 67
23 72
23 74
23 75
23 76
23 80
23 81
23 82
23 83
23 84
23 85
23 87
23 272
24 27
24 29
24 33
24 34
24 39
24 40
24 44
24 49
24 51
24 54
24 57
24 58
24 59
24 60
24 64
24 66
24 67
24 71
24 72
24 75
24 76
24 84
24 85
24 96
24 153
24 165
24 237
24 312
24 346
24 348
25 29
25 30
25 32
25 33
25 34
25 36
25 39
25 40
25 42
25 43
25 44
25 45
25 51
25 52
25 55
25 57
25 58
25 59
25 60
25 64
25 65
25 67
25 69
25 76
25 77
25 80
25 82
25 83
25 85
26 31
26 33
26 38
26 44
26 48
26 51
26 58
26 63
26 64
26 69
26 70
26 72
26 75
26 77
26 78
26 79
26 80
26 82
26 84
26 245
27 34
27 35
27 37
27 38
27 45
27 49
27 51
27 53
27 54
27 56
27 58
27 59
27 64
27 66
27 68
27 78
27 79
27 82
27 87
27 339
28 35
28 38
28 40
28 41
28 43
28 46
28 49
28 51
28 54
28 57
28 60
28 61
28 64
28 65
28 74
28 75
28 76
28 82
28 86
28 87
28 163
28 231
28 251
28 317
28 331
29 34
29 35
29 36
29 37
29 42
29 43
29 45
29 48
29 49
29 50
29 55
29 57
29 61
29 69
29 70
29 72
29 73
29 74
29 77
29 79
29 80
29 83
29 85
29 93
29 97
29 116
29 130
29 203
29 243
29 250
29 275
29 305
30 33
30 34
30 35
30 37
30 39
30 45
30 49
30 52
30 58
30 60
30 64
30 65
30 66
30 68
30 77
30 79
30 80
30 82
30 83
30 85
30 87
30 268
31 32
31 37
31 39
31 44
31 57
31 60
31 62
31 63
31 64
31 69
31 72
31 73
31 75
31 79
31 206
31 308
32 34
32 39
32 42
32 44
32 45
32 48
32 49
32 50
32 52
32 54
32 55
32 57
32 59
32 60
32 61
32 62
32 65
32 74
32 75
32 77
32 78
32 82
32 84
32 86
32 142
32 314
32 338
33 34
33 37
33 41
33 44
33 47
33 48
33 49
33 50
33 52
33 53
33 54
33 55
33 57
33 58
33 62
33 63
33 64
33 65
33 66
33 69
33 73
33 76
33 83
33 100
33 133
33 172
33 197
33 287
33 290
33 316
34 36
34 37
34 39
34 41
34 43
34 44
34 45
34 47
34 48
34 49
34 52
34 54
34 55
34 58
34 60
34 61
34 66
34 67
34 68
34 69
34 71
34 72
34 73
34 74
34 77
34 79
34 80
34 85
34 288
34 297
34 300
34 322
35 38
35 40
35 45
35 47
35 51
35 52
35 56
35 60
35 61
35 67
35 71
35 73
35 74
35 76
35 77
35 80
35 82
35 84
35 85
35 88
35 120
35 207
35 253
35 263
35 291
35 303
35 326
36 37
36 38
36 40
36 43
36 47
36 48
36 50
36 56
36 66
36 67
36 74
36 75
36 77
36 79
36 80
36 81
36 84
36 85
36 87
36 285
37 38
37 41
37 42
37 43
37 44
37 45
37 47
37 48
37 49
37 51
37 52
37 53
37 55
37 62
37 63
37 64
37 67
37 69
37 70
37 73
37 76
37 82
37 83
37 84
37 101
37 109
37 127
37 159
37 247
37 293
38 42
38 43
38 48
38 50
38 51
38 52
38 53
38 56
38 58
38 61
38 65
38 66
38 69
38 70
38 74
38 76
38 77
38 80
38 81
38 219
39 41
39 46
39 48
39 49
39 51
39 53
39 60
39 62
39 64
39 69
39 70
39 74
39 78
39 81
39 82
39 86
39 122
39 132
39 174
40 45
40 47
40 48
40 52
40 55
40 62
40 63
40 64
40 66
40 70
40 74
40 80
40 84
40 118
40 175
41 42
41 49
41 50
41 51
41 53
41 54
41 58
41 60
41 61
41 64
41 65
41 66
41 70
41 74
41 76
41 77
41 79
41 83
41 84
41 85
41 86
41 87
41 125
41 177
41 216
41 261
41 324
41 341
42 46
42 50
42 54
42 58
42 60
42 62
42 63
42 64
42 65
42 69
42 71
42 72
42 73
42 74
42 75
42 77
42 78
42 82
42 86
42 87
42 208
42 281
43 44
43 46
43 48
43 50
43 54
43 55
43 59
43 60
43 62
43 78
43 79
43 85
43 86
43 87
43 105
43 183
44 47
44 49
44 51
44 54
44 56
44 62
44 68
44 70
44 74
44 76
44 78
44 79
44 80
44 85
44 306
45 46
45 54
45 55
45 58
45 64
45 67
45 71
45 72
45 73
45 79
45 81
45 86
45 87
45 226
45 249
46 47
46 52
46 57
46 58
46 60
46 62
46 63
46 64
46 65
46 68
46 73
46 75
46 82
46 84
46 85
46 145
46 192
46 240
47 48
47 52
47 56
47 57
47 58
47 61
47 63
47 66
47 70
47 73
47 74
47 81
47 86
47 98
47 162
48 49
48 54
48 58
48 59
48 60
48 61
48 62
48 63
48 65
48 70
48 71
48 75
48 77
48 78
48 79
48 81
48 82
48 86
48 87
48 91
48 128
48 176
48 283
48 284
49 50
49 52
49 56
49 58
49 68
49 74
49 78
49 83
49 85
50 51
50 52
50 56
50 57
50 58
50 59
50 62
50 64
50 65
50 66
50 72
50 75
50 81
50 82
50 83
50 86
50 87
50 104
50 199
51 53
51 59
51 61
51 64
51 69
51 72
51 75
51 76
51 78
51 84
52 54
52 58
52 59
52 63
52 65
52 66
52 68
52 71
52 76
52 78
52 81
52 83
52 84
52 85
52 86
52 94
52 194
52 217
52 233
52 273
53 55
53 60
53 62
53 65
53 68
53 71
53 72
53 74
53 77
53 78
53 79
53 83
53 85
53 86
53 184
53 186
53 337
54 55
54 56
54 59
54 60
54 62
54 69
54 70
54 72
54 74
54 76
54 77
54 78
54 83
54 84
54 87
54 103
54 181
54 214
54 229
54 313
54 332
55 57
55 59
55 61
55 66
55 69
55 72
55 75
55 76
55 79
55 82
55 87
55 117
55 119
56 60
56 62
56 68
56 80
56 81
56 85
56 107
56 123
56 218
56 280
56 345
57 61
57 64
57 65
57 69
57 70
57 78
57 79
57 82
57 85
57 86
57 157
57 160
58 60
58 67
58 68
58 70
58 71
58 72
58 73
58 74
58 77
58 78
58 79
58 81
58 87
58 140
58 204
58 286
59 60
59 62
59 64
59 65
59 66
59 68
59 69
59 73
59 76
59 77
59 78
59 81
59 244
60 61
60 62
60 68
60 69
60 72
60 73
60 77
60 81
60 82
60 83
60 84
60 167
60 198
60 222
60 271
61 62
61 75
61 78
61 80
61 83
61 84
61 85
61 86
61 87
61 149
61 343
62 65
62 67
62 70
62 73
62 74
62 75
62 81
62 82
62 83
62 85
62 139
62 169
62 213
62 294
63 64
63 65
63 66
63 69
63 70
63 71
63 81
63 82
63 83
64 66
64 67
64 69
64 70
64 71
64 72
64 73
64 74
64 80
64 81
64 86
64 252
64 342
65 68
65 72
65 76
65 77
65 78
65 81
65 82
65 83
65 85
65 87
65 156
65 202
65 224
65 269
65 335
66 68
66 71
66 74
66 82
66 85
66 215
67 68
67 71
67 76
67 79
67 81
67 84
67 86
67 87
67 146
67 188
68 69
68 75
68 77
68 82
68 83
68 84
68 87
68 121
68 134
68 147
69 71
69 73
69 74
69 78
69 79
69 80
69 81
69 82
69 83
69 84
70 71
70 72
70 74
70 77
70 80
70 81
70 83
70 84
70 85
70 87
70 115
70 166
70 193
70 196
70 210
71 72
71 74
71 77
71 83
71 84
71 87
71 89
71 99
71 191
71 235
72 77
72 81
72 82
72 83
72 87
72 92
73 84
73 85
73 86
73 87
73 136
73 182
73 212
73 299
74 76
74 78
74 80
74 83
74 84
74 85
74 143
74 246
74 260
74 276
74 277
74 344
75 80
75 82
75 83
75 84
75 85
75 87
75 144
76 77
76 180
76 319
77 78
77 79
77 82
77 86
78 80
78 84
78 85
78 86
78 124
78 221
78 230
78 238
78 315
79 80
79 82
79 84
79 85
79 86
79 95
79 114
79 161
79 227
79 327
80 83
80 84
80 112
80 187
80 190
80 302
80 309
81 84
81 86
81 148
82 83
82 84
82 86
82 232
83 85
83 87
83 228
83 279
84 87
84 131
84 141
84 164
84 168
84 255
84 267
84 282
85 86
85 111
86 87
86 158
86 270
87 113
87 321
117 330
151 201
158 296
167 304
168 257
177 234
178 298
187 347
194 195
195 220
203 329
204 289
205 328
211 236
212 239
218 325
231 241
262 307
284 323
286 320
