0 10
0 15
0 85
1 12
1 22
1 29
1 31
1 38
2 13
2 15
2 17
2 24
2 27
2 35
2 38
2 76
2 88
3 10
3 12
3 15
3 16
3 18
3 24
3 32
3 36
3 57
3 66
3 109
4 5
4 11
4 13
4 15
4 23
4 24
4 27
5 6
5 9
5 14
5 15
5 18
5 20
5 23
5 24
5 27
5 29
5 30
5 31
5 73
5 109
5 117
6 7
6 23
6 25
6 32
7 11
7 12
7 14
7 19
7 25
7 26
7 35
8 9
8 27
8 29
8 32
8 33
8 76
9 17
9 21
9 27
9 38
9 56
9 69
9 121
10 26
10 37
11 17
11 27
11 29
11 32
11 33
11 38
11 61
12 14
12 17
12 25
12 27
12 28
12 31
12 32
12 37
12 38
12 39
12 53
12 112
12 144
13 21
13 33
13 37
13 38
13 158
14 20
14 27
14 31
15 20
15 22
15 115
15 133
16 17
16 18
16 31
16 34
16 35
16 112
17 22
17 38
17 147
18 25
18 29
18 32
18 38
18 63
19 29
19 30
19 115
19 136
20 21
20 22
20 26
20 29
20 31
20 33
20 102
21 25
21 28
21 31
21 34
21 62
22 35
22 73
22 109
23 27
23 28
23 30
23 34
23 39
23 108
24 28
24 125
25 154
26 125
26 145
27 48
27 66
27 113
28 29
28 32
28 34
28 38
28 133
28 138
30 36
30 39
31 35
31 36
31 40
31 156
32 156
33 86
33 117
34 39
34 55
34 86
34 123
35 37
35 38
36 38
36 114
37 38
37 39
38 119
39 54
39 89
40 41
40 47
40 52
40 53
40 56
40 61
40 62
40 67
40 74
41 46
41 48
41 49
41 57
41 68
41 70
41 71
41 73
41 135
42 48
42 56
42 68
42 70
42 77
42 135
43 44
43 62
43 65
43 70
43 74
43 76
43 98
43 107
44 47
44 48
44 68
45 53
45 56
45 59
45 69
45 70
46 58
46 59
46 60
46 67
46 71
47 50
47 51
47 53
47 63
47 69
47 74
47 123
48 50
48 62
48 64
48 74
48 78
48 116
48 118
48 148
49 64
49 70
49 77
49 78
49 79
50 61
50 76
50 79
50 151
51 67
51 112
52 62
52 65
52 70
52 72
52 75
52 77
52 78
53 54
53 56
53 64
53 65
53 71
53 72
53 79
54 57
54 60
54 68
54 76
55 56
55 59
55 65
55 67
55 78
56 64
56 68
56 75
56 76
57 60
57 64
57 66
57 78
57 90
57 137
57 154
58 73
58 75
58 78
59 63
59 66
59 71
59 78
59 79
59 110
59 116
60 62
60 66
60 72
61 65
61 71
61 75
61 76
62 63
62 69
62 72
62 145
63 65
63 72
63 112
64 65
64 78
65 66
65 67
65 71
65 73
65 75
66 67
66 71
66 77
66 78
66 79
67 73
67 110
67 147
68 69
68 72
69 73
70 78
71 72
71 75
71 77
71 105
72 143
73 97
73 131
75 76
76 143
76 154
77 116
78 85
80 83
80 86
80 96
80 106
80 108
80 110
80 111
80 112
80 118
80 148
81 86
81 93
81 96
81 97
81 104
81 115
81 120
81 134
82 91
82 94
82 97
82 104
82 111
82 117
83 90
83 97
83 110
83 113
83 129
84 88
84 91
84 93
84 103
84 105
84 116
84 146
85 92
85 93
85 108
85 112
85 118
86 90
86 108
87 92
87 96
87 102
87 103
87 104
87 108
87 118
88 92
88 99
88 107
88 111
88 116
88 155
89 98
89 101
89 104
89 109
90 100
90 112
90 115
90 116
90 124
90 139
91 93
91 98
91 103
91 105
91 110
91 147
92 104
92 107
92 111
92 136
93 95
93 96
93 97
93 98
93 99
93 101
93 105
93 113
93 115
94 100
94 102
94 104
94 105
94 108
94 109
94 118
95 99
95 141
96 108
97 102
97 114
97 118
98 102
98 104
98 113
98 115
99 102
99 104
99 106
99 113
99 119
100 109
100 119
101 113
101 114
101 117
101 129
102 104
102 113
103 107
103 114
104 117
104 149
105 108
105 113
105 118
105 119
105 123
106 109
106 113
106 116
106 118
107 113
107 118
108 112
108 115
108 158
109 113
109 134
110 114
110 118
111 117
111 118
112 114
112 116
113 114
113 115
113 119
114 121
115 117
115 137
116 118
117 135
117 140
120 135
120 138
120 142
120 147
120 148
121 122
121 126
121 128
121 140
121 145
121 150
121 152
121 159
122 123
122 126
122 130
122 131
122 139
122 159
123 134
123 138
123 140
123 143
124 132
124 133
125 130
125 138
126 129
126 140
126 141
126 143
126 152
127 129
127 132
127 138
127 143
127 148
127 150
127 155
127 158
127 159
128 130
128 139
128 142
128 149
128 152
128 154
128 155
129 151
129 155
129 157
130 134
130 137
130 138
130 139
130 152
130 158
130 159
131 132
131 136
131 140
131 147
132 137
132 138
132 140
132 146
132 153
132 154
132 157
133 135
133 144
133 145
133 146
133 149
133 153
133 156
134 135
134 140
134 143
134 154
135 136
135 145
135 148
135 151
135 159
136 144
136 145
136 154
136 156
137 139
137 140
137 144
137 152
137 155
137 157
138 139
138 150
139 144
139 159
140 145
140 146
140 155
140 158
141 142
141 146
141 153
141 158
142 152
142 155
143 154
143 157
144 152
144 153
144 154
144 157
144 159
145 147
145 152
146 148
146 154
146 155
146 156
147 154
149 158
150 155
151 154
151 158
155 158
