160 621
11 16 86
13 23 30 32 39
14 16 18 25 28 36 39 77 89
11 13 16 17 19 25 33 37 58 67 110
6 12 14 16 24 25 28
5 7 10 15 16 19 21 24 25 28 30 31 32 74 110 118
6 8 24 26 33
7 12 13 15 20 26 27 36
10 28 30 33 34 77
6 9 18 22 28 39 57 70 122
1 4 27 38
5 8 18 28 30 33 34 39 62
2 4 8 15 18 26 28 29 32 33 38 39 40 54 113 145
3 5 22 34 38 39 159
6 8 13 21 28 32
1 3 4 5 6 21 23 116 134
4 18 19 32 35 36 113
3 10 12 13 17 23 39 148
4 6 17 26 30 33 39 64
8 30 31 116 137
6 15 16 22 23 27 30 32 34 103
10 14 21 26 29 32 35 63
2 16 18 21 36 74 110
5 6 7 28 29 31 35 40 109
3 4 5 6 29 126
7 8 13 19 22 155
8 11 21 126 146
3 5 6 9 10 12 13 15 24 49 67 114
13 22 24 25 30 33 35 39 134 139
2 6 9 12 19 20 21 29
6 20 24 37 40
2 6 13 15 17 21 22 36 37 41 157
4 7 9 12 13 19 29 157
9 12 14 21 87 118
17 22 24 29 40 56 87 124
3 8 17 23 32 38 39
4 31 32 39 115
11 13 14 36 39 40
2 3 10 12 13 14 18 19 29 36 37 38 120
13 24 31 35 38 55 90
32 42 48 53 54 57 62 63 68 75
41 47 49 50 58 69 71 72 74 136
49 57 69 71 78 136
45 63 66 71 75 77 99 108
44 48 49 69
54 57 60 70 71
42 59 60 61 68 72
41 45 51 52 54 64 70 75 124
28 42 43 45 51 63 65 75 79 117 119 149
42 65 71 78 79 80
48 49 62 77 80 152
48 68 113
41 63 66 71 73 76 78 79
13 41 46 48 55 57 65 66 72 73 80
40 54 58 61 69 77
35 57 60 66 68 79
10 41 43 46 54 56 65 69 76 77
4 42 55 61 65 67 79 91 138 155
47 74 76 79
46 47 56 64 67 72 79 80 111 117
47 55 58 63 67 73
12 41 51 66 72 76 77
22 41 44 49 53 61 64 70 73 146
19 48 60 63 66 73 113
49 50 54 57 58 66 79
44 53 54 56 62 64 65 67 68 72 74 76
4 28 58 60 61 66 68 72 78 79 80
41 47 52 56 66 67 74 111 148
42 43 45 55 57 70 73
10 46 48 63 69 74
42 43 44 46 50 53 79
42 47 54 60 62 66 67 73 76 78 106
53 54 61 63 64 69 72 144
6 23 42 59 66 68 70 98 132
41 44 48 49
53 57 59 62 66 72 77
3 9 44 51 55 57 62 76 144 155
43 50 53 67 72 117
49 50 53 56 58 59 60 65 67 71 86
50 51 54 60 67
84 87 97 107 109 111 112 113 119 149
87 94 97 98 105 116 121 135
92 95 98 105 112 118
81 91 98 111 114 130
89 92 94 104 106 117 147
1 79 93 94 109 113 119
34 35 81 82 91 109
93 97 103 104 105 109 119
3 85 93 100 108 112 117 156
40 99 102 105 110
58 84 87 101 113 116 117 125 140
83 85 94 99 104 106 111 148
86 88 89 105 108 112 137
82 85 86 92 96 97 98 99 100 102 106 114 116
83 101 103 105 106 109 110 119
94 100 142
81 82 88 94 109
74 82 83 84 94 103 115 119
44 90 92 94 103 105 114 116
89 94 96 103 105 107 114 120
91 95 110 120
90 94 114 115 118 130
21 88 95 98 99 100 105 114
85 88 92 108 115
82 83 88 90 93 95 99 100 103 118 150
72 85 92 94 95 109 114 119 120 124
81 100 110 114 117 119
44 89 93 104 114 119
24 81 86 87 88 95 97 106 113 116 159
4 6 23 90 95 101 107 114 135
60 68 81 84 92 115 119
81 83 89 93 118 119
13 17 52 64 81 86 91 109 115 117
28 84 94 99 100 102 103 106 107 108 110 115 116 120
37 98 102 104 111 113 114 122
16 20 82 91 94 99 109 114 118 138
49 60 78 85 89 91 107 113 119
6 34 83 102 105 112 116 136 141
49 81 86 88 95 98 106 107 108 111 112 117
39 100 101 106 114
82 136 139 143 148 149
10 115 123 127 129 141 146 151 153 160
122 124 127 131 132 140 160
35 48 106 123 135 139 141 144
91 133 134
25 27 131 139
122 123 130 141 142 144 153
130 133 139 144 149 151 156 159 160
122 131 140 143 150 153 155 156
84 102 127 128 152 156 158
123 126 129 135 138 139 140 153 159 160
74 123 133 137 141 148
125 128 132 138 139 141 147 154 155 158
16 29 125 136 145 146 147 150 154 157
82 110 124 131 136 141 144 155
42 43 118 121 134 135 137 146 149 152 160
20 93 132 136 145 146 155 157
58 116 131 133 140 141 145 153 156 158
29 121 124 126 128 131 133 140 151
91 123 129 131 138 139 145 160
118 122 124 127 132 133 135 138 146 147 156 159
96 127 143 147 154 159
121 129 142 153 156
73 77 124 127 128 135 155 158
13 134 137 138 140 153 154 155 158 160
27 63 122 134 136 137 141 148 153
85 133 134 141 142 149 155 156 157
18 68 92 121 132 146 155
49 81 121 128 136 147
105 129 134 159
122 128 139 156
51 130 136 155 159
122 127 129 131 138 143 145 146
133 134 142 145
26 58 77 129 133 135 137 144 145 147 148 152
89 128 129 130 138 141 143 147 151 159
32 33 134 137 147
130 133 138 144 145
14 109 128 131 141 142 150 152 156
122 123 128 131 136 140 145
