214 2328
4 5 6 9 10 16 19 20 21 22 23 27 29 31 32 38 39 40 41 43 52 54 55 56 65 66 68 70 76 78 79 80 161
4 5 6 9 15 16 17 18 21 25 27 28 29 33 36 39 42 45 46 50 51 52 53 57 59 61 63 68 69 73 76 179
6 10 12 13 18 19 20 22 24 27 28 34 36 40 41 43 46 47 48 49 52 54 64 65 66 67 68 69 73 74 76 78 80 197
1 2 6 7 9 11 15 18 20 23 26 29 32 33 35 39 40 41 43 44 51 52 53 55 61 63 64 68 70 72 74 77 80
1 2 6 8 10 12 13 14 15 16 20 22 27 29 31 33 36 37 38 41 43 46 47 48 51 54 55 57 64 65 66 71 74 77 78 80
1 2 3 4 5 7 10 12 14 15 16 21 24 25 28 35 37 38 39 43 44 46 47 49 58 59 64 66 72 73 77 78 79
4 6 13 22 23 25 26 31 33 36 37 38 39 40 45 47 49 52 53 54 55 56 60 61 66 75 80
5 9 19 22 23 26 30 33 37 39 40 41 42 48 50 51 53 54 58 66 69 77
1 2 4 8 14 18 19 20 21 22 24 26 29 30 31 36 40 41 45 46 51 55 57 60 68 69 71 72 75 77
1 3 5 6 13 26 27 29 31 33 37 40 41 42 43 44 47 48 49 51 53 54 56 59 61 71 72 75 78 79 80
4 15 16 20 23 25 27 28 29 32 34 36 44 48 49 51 54 59 60 65 66 67 68 69 70 76 77
3 5 6 17 19 20 26 31 32 35 37 39 41 44 45 46 47 52 53 55 56 59 60 61 65 67 72 76
3 5 7 10 17 25 32 38 39 46 48 57 61 63 64 65 68 71 72 73 78 80
5 6 9 16 22 23 24 26 28 29 32 37 39 40 43 44 45 47 50 51 54 56 61 64 66 69 70 72 73 74 77 78 79 80
2 4 5 6 11 16 17 18 19 21 23 27 28 33 36 38 40 41 46 47 52 54 55 58 60 63 65 67 68
1 2 5 6 11 14 15 18 19 21 24 26 28 30 31 39 40 42 48 54 56 60 61 66 67 68 71 73 75 77 80
2 12 13 15 18 19 21 22 23 26 28 29 31 34 36 43 44 46 47 48 55 56 59 67 69 71 72 74
2 3 4 9 15 16 17 21 22 25 36 47 49 54 58 61 64 65 66 67 71 73 75 76
1 3 8 9 12 15 16 17 24 26 31 34 37 46 47 48 50 54 56 58 62 65 66 71 74 75 76
1 3 4 5 9 11 12 28 32 33 35 39 40 42 43 44 47 48 53 55 57 60 63 66 70 72 73 76 77 80
1 2 6 9 15 16 17 18 27 28 29 30 39 41 44 45 46 47 52 54 56 57 65 67 68 79 80
1 3 5 7 8 9 14 17 18 24 28 31 32 33 34 38 39 42 46 53 55 56 62 66 67 69 71 77 78 80
1 4 7 8 11 14 15 17 26 28 29 34 37 38 39 40 55 58 59 63 64 66 67 68 70 71 72 77
3 6 9 14 16 19 22 25 27 28 30 34 35 37 40 42 44 45 46 49 51 52 53 54 58 61 62 65 68 70 72 73 74 75 79
2 6 7 11 13 18 24 30 31 32 37 38 41 46 47 48 52 54 57 58 63 64 67 68 70 75 76 77 80
4 7 8 9 10 12 14 16 17 19 23 28 29 31 32 33 37 39 40 42 45 46 50 56 58 65 68 72 73 76 78 79
1 2 3 5 10 11 15 21 24 28 33 39 42 43 45 46 47 48 49 52 53 56 64 68 70 71
2 3 6 11 14 15 16 17 20 21 22 23 24 26 27 32 36 37 40 43 49 51 52 53 54 57 62 63 65 66 67 72 75 77
1 2 4 5 9 10 11 14 17 21 23 26 31 34 35 38 40 41 42 45 46 50 51 53 57 59 63 67 68 70 71 72 73 74 75 78 80
8 9 16 21 24 25 33 34 38 39 42 43 44 45 46 47 48 51 53 56 59 60 64 68 69 70 76
1 5 7 9 10 12 16 17 19 22 25 26 29 33 42 51 55 59 60 62 66 70 74 79
1 4 11 12 13 14 20 22 25 26 28 34 35 39 40 44 45 46 51 52 54 59 60 62 69 74
2 4 5 7 8 10 15 20 22 26 27 30 31 43 44 46 47 48 51 52 56 59 60 63 64 71 73 76 80
3 11 17 19 22 23 24 29 30 32 38 41 43 45 50 51 52 54 56 58 59 60 61 62 64 65 68 77 78
4 6 12 20 24 29 32 36 42 47 48 49 50 57 64 67 69 72 77 80
2 3 5 7 9 11 15 17 18 28 35 38 44 47 50 55 58 61 65 67 75 80
5 6 7 8 10 12 14 19 23 24 25 26 28 40 42 45 47 48 49 51 52 53 55 56 57 59 61 63 65 66 68 69 72 73 77 78 80
1 5 6 7 13 15 22 23 25 29 30 34 36 39 42 47 59 61 62 68 70 71 77 78 80
1 2 4 6 7 8 12 13 14 16 20 21 22 23 26 27 30 32 38 42 44 46 47 56 57 61 64 65 68 71 72 73 74 75 79
1 3 4 7 8 9 10 14 15 16 20 23 24 26 28 29 32 37 41 42 44 47 49 50 51 52 57 64 66 68 69 78
1 3 4 5 8 9 10 12 15 21 25 29 34 40 44 45 46 53 56 57 63 64 69 70 74 77 80
2 8 10 16 20 22 24 26 27 29 30 31 35 37 38 39 40 44 46 47 48 51 53 54 68 70 76 78 79
1 3 4 5 6 10 14 17 20 27 28 30 33 34 45 55 56 57 61 62 64 65 66 68 69 73 76 77 79 80
4 6 10 11 12 14 17 20 21 24 30 32 33 36 39 40 41 42 48 49 50 54 57 59 62 67 68 69 70 71 75 76 78 79
2 7 9 12 14 21 24 26 27 29 30 32 34 37 41 43 46 47 50 51 53 60 63 64 65 67 72
2 3 5 6 9 12 13 15 17 19 21 22 24 25 26 27 29 30 32 33 39 41 42 45 47 48 50 54 59 61 65 69 71 72 77 78 80
3 5 6 7 10 12 14 15 17 18 19 20 21 25 27 30 33 35 36 37 38 39 40 42 45 46 50 51 53 60 67 72 73 74 75 80
3 5 8 10 11 13 16 17 19 20 25 27 30 33 35 37 42 44 46 50 51 57 64 67 70 71 77 78 79 80
3 6 7 10 11 18 24 27 28 35 37 40 44 55 63 64 67 73 74 76 80
2 8 14 19 26 29 34 35 36 40 44 45 46 47 48 60 61 64 65 69 74 75 76 78
2 4 5 8 9 10 11 14 24 28 29 30 31 32 33 34 37 40 42 45 47 48 56 64 78
1 2 3 4 7 12 15 21 24 25 27 28 32 33 34 37 40 56 63 70 71 75 76 78
2 4 7 8 10 12 20 22 24 27 28 29 30 37 41 42 45 47 54 57 58 59 65 68 73 75 77 80
1 3 5 7 8 10 11 14 15 16 18 19 21 24 25 28 32 34 42 44 46 53 56 58 61 63 65 67 68 70 72 73 75 79 80
1 4 5 7 9 12 15 17 20 22 23 31 36 37 43 49 58 60 62 63 64 67 68 70 79 80
1 7 10 12 14 16 17 19 21 22 26 27 30 33 34 37 39 41 43 51 52 54 57 65 72 73 75
2 5 9 13 20 21 25 28 29 35 37 39 40 41 43 44 48 53 56 59 60 63 66 67 69 70 75 78
6 8 15 18 19 23 24 25 26 34 36 53 54 55 59 61 63 64 67 74 75 79 80
2 6 10 11 12 17 23 29 30 31 32 33 34 37 38 44 46 53 57 58 62 68 70 73 75 77 80
7 9 11 12 15 16 20 30 31 32 33 34 45 47 50 55 57 62 63 65 67 69 74 77 79 80
2 4 7 10 12 13 14 16 18 24 34 36 37 38 39 43 46 50 54 58 63 64 65 66 68 69 70 73 75
19 22 24 28 31 32 34 38 43 44 55 59 60 63 67 70 73 76 77 80
2 4 13 15 20 23 25 28 29 33 37 41 45 49 52 54 55 57 58 60 61 62 66 69 73 76 78
3 4 5 6 13 14 18 23 25 27 30 33 34 35 39 40 41 43 45 48 49 50 51 55 58 61 66 68 69 73 75 78
1 3 5 11 12 13 15 18 19 21 24 26 28 34 36 37 39 43 45 46 50 53 54 56 60 61 67 68 69
1 3 5 6 7 8 11 14 16 18 19 20 22 23 28 31 37 40 43 57 61 63 64 68 70 76 79 80
3 11 12 15 16 17 18 21 22 23 25 28 29 35 36 44 45 47 48 49 54 55 57 58 60 62 65 68 72 78 80
1 2 3 4 9 11 13 15 16 21 23 24 25 26 27 29 30 34 37 38 39 40 42 43 44 53 54 55 59 61 64 65 66 67 69 72 79
2 3 8 9 11 14 17 22 30 32 35 37 40 41 43 44 46 50 57 60 61 63 64 65 68 70 76 77 80
1 4 11 14 20 23 24 25 27 29 30 31 38 41 42 44 48 52 54 55 57 59 61 62 66 69 74 77
5 9 10 13 16 17 18 19 22 23 27 29 33 38 39 44 46 48 52 73 74 79
4 6 9 10 12 13 14 17 20 23 24 26 28 29 35 37 39 45 46 47 54 56 67 68 77 78
2 3 6 13 14 16 18 20 24 26 29 33 37 39 43 47 49 53 54 56 59 61 62 63 64 71 74 75 76
3 4 5 14 17 19 24 29 31 32 39 41 47 49 50 58 60 70 71 73 78 80
7 9 10 16 18 19 24 25 28 29 36 39 44 47 50 52 53 54 56 57 58 59 61 64 73 76 77 80
1 2 3 11 12 18 19 20 25 26 30 33 42 43 44 49 50 52 62 63 66 69 73 75 79
4 5 6 8 9 11 14 16 20 22 23 25 28 34 35 37 38 41 43 46 48 53 59 60 62 69 70 72 75 78
1 3 5 6 10 13 14 22 26 29 34 37 38 40 42 44 46 48 50 51 52 57 63 64 67 72 74 77 79
1 6 10 14 21 24 26 31 39 42 43 44 48 54 55 58 60 66 68 71 76 78
1 3 4 5 7 10 13 14 16 20 21 22 25 29 33 35 36 37 38 41 43 46 47 48 49 53 54 55 58 59 60 62 66 67 69 74 75
82 86 89 91 97 98 99 100 102 103 106 110 113 114 115 124 125 128 129 130 131 132 137 143 146 150 151 152 153 154 156 158 159 178
81 86 95 96 106 107 110 116 117 121 122 123 129 130 131 134 135 137 138 140 142 143 144 151 154 155 158 160 196
85 86 88 90 91 97 98 106 107 109 112 113 114 115 117 118 129 131 132 134 137 138 139 144 145 146 147 149 151 152 153 154 156 160 214
86 87 95 106 128 132 133 136 138 139 142 143 144 149 152 153 157
83 86 87 88 95 105 107 110 111 112 117 119 121 122 129 134 136 139 140 146 148 151 152 156 157 158 160
81 82 83 84 85 91 93 101 102 106 108 113 116 120 121 122 126 129 132 134 136 137 140 143 144 146 147 150 151 153 154 156 160
84 85 89 92 100 102 109 111 119 120 125 128 130 132 136 143 145 146 148 152 153 154 155
83 85 90 91 94 97 101 107 114 116 122 131 133 143 144 154 156 157 158 159
81 87 91 92 94 97 99 100 101 103 106 107 113 114 115 121 122 126 127 128 131 133 142 143 145 146 147 151 152 153 154 155 156 160
83 88 91 94 96 104 109 112 122 128 130 134 143 144 152 157
81 83 86 88 89 90 92 93 94 95 96 97 98 99 100 101 108 110 112 118 119 121 123 124 125 130 131 132 135 137 143 144 145 149 150 151 153 160
87 89 91 94 100 101 102 104 109 112 115 117 120 121 126 128 130 131 137 138 140 143 147 149 156 158 159
86 91 94 102 105 106 108 109 112 113 116 117 119 121 123 125 127 128 131 134 136 138 141 142 143 148 155
88 89 90 91 92 93 95 97 99 102 104 105 106 110 113 115 117 118 119 120 124 127 129 131 133 139 148 150 156
82 84 85 91 94 96 97 98 101 103 104 109 110 116 118 119 128 130 134 138 139 141 143 147 148 149 150 152 158 159 160
82 90 91 95 97 101 107 113 118 119 122 126 127 129 133 134 139 143 150 158 160
81 83 88 89 91 94 95 96 98 101 102 104 105 107 112 113 116 118 119 120 122 127 129 130 131 132 133 135 137 145 146 147 152 153 155 157 158
81 83 91 95 97 100 102 106 113 115 116 123 124 126 143 145 156 157 158
81 89 91 94 101 102 103 109 113 114 115 118 122 126 128 130 136 138 142 143 151 157
81 87 89 91 92 98 102 103 105 108 109 112 116 119 120 123 126 128 135 141 142 144 148 149 152 154 159 160
86 88 89 91 92 95 96 97 99 103 104 108 113 117 120 122 124 127 128 129 131 136 138 141 144 146 147 156 158
81 86 87 92 93 94 97 98 99 100 104 105 107 108 110 111 112 117 121 123 129 131 132 135 139 142 143 148 150 151 155 157 160
81 89 95 99 100 101 104 105 109 116 117 118 121 129 133 134 139 148 149 151 158 160
90 92 94 95 97 101 102 103 105 106 108 114 115 121 122 123 128 130 134 138 139 141 143 149 153 155 158
85 93 94 97 100 102 103 104 108 109 112 114 115 116 120 121 130 131 132 134 135 136 138 141 142 147 150 152 154 155 157
81 82 83 84 86 89 93 94 98 104 107 109 111 114 117 118 121 122 124 127 129 133 137 141 144 152 156 157
82 83 85 88 89 96 97 102 106 109 112 113 120 121 122 123 125 126 127 129 135 136 137 138 142 146 149 152 154 155 156 157 159
86 91 93 100 101 102 104 105 111 113 115 116 118 120 128 130 133 134 136 137 138 140 146 149 151 152 154
83 87 90 92 93 95 99 100 103 105 106 107 112 113 115 119 122 131 132 134 137 139 141 144 146 147 148 151 154 155 160
81 82 85 91 94 95 102 113 115 116 117 118 119 125 127 128 130 138 142 145 148 154 157 160
85 87 102 106 108 112 113 114 117 124 128 129 132 136 138 141 145 148 151 156
83 85 90 91 92 93 97 100 102 105 107 109 111 116 119 122 123 125 126 127 129 131 134 142 144 149 151 152 160
81 83 86 89 93 94 96 97 98 99 101 107 108 109 110 111 115 116 118 121 122 124 130 136 140 141 148 150 154 155 156 159
81 83 88 89 99 104 105 106 111 115 116 120 122 126 128 136 137 139 145 146 147 148 150 151 154 155 159 160
81 83 89 92 94 98 99 104 105 108 109 110 113 114 117 118 119 121 126 129 135 139 140 141 142 143 146 157 158 159
82 86 88 93 95 97 98 100 103 105 108 110 112 113 114 118 123 124 125 130 134 137 138 141 144 145 146 147 152 154 158
82 83 85 92 93 94 101 102 103 106 110 111 115 118 121 124 125 126 130 131 142 151 153 156 157 158 159
83 91 94 95 96 97 99 103 106 108 110 113 115 116 117 119 121 123 124 129 130 131 134 141 149 150 154 157 159 160
85 87 91 93 94 95 96 97 100 109 110 112 115 118 121 128 132 133 134 138 149 150 151 153 154 158 159
86 87 92 94 97 100 101 105 107 108 114 123 124 125 126 135 136 137 138 144 145 148 149 156 157 159 160
82 85 86 89 91 92 93 102 103 104 105 106 107 113 115 117 118 119 123 124 126 127 128 131 132 133 135 138 139 141 143 147 148 150 151 155 156 157 159
82 85 86 88 89 90 96 97 99 101 104 106 107 109 112 113 114 123 125 128 129 131 134 136 143 144 145 146 148 151 156 157 158
82 91 93 98 100 102 104 107 112 116 118 120 121 122 125 131 133 134 135 139 140 141 146 147 150 154
81 91 94 98 101 106 111 113 116 117 118 120 121 128 130 131 132 134 140 144 148 154 156
81 87 91 93 107 110 112 116 117 120 122 123 127 130 133 138 140 142 143 144 145 149 152 155 158 159
86 89 92 96 98 99 100 107 112 114 115 117 120 121 128 129 131 132 136 139 142 145 148 150 154 159 160
89 93 94 96 97 101 106 107 110 112 121 125 131 132 134 137 141 149 153 156 160
81 84 87 89 90 92 93 95 99 100 101 104 108 110 111 114 119 121 122 124 126 129 131 134 135 136 137 139 142 150 151 153 154 155 156 159
81 82 83 85 86 94 96 97 101 102 103 106 107 111 112 115 118 122 126 128 138 139 140 143 149 150 151 152 157
81 82 87 90 91 92 95 97 99 104 105 108 110 113 116 117 118 124 125 135 138 139 140 143 146 148 149 154 159 160
81 82 83 88 89 91 92 93 94 97 101 102 105 109 112 117 118 121 122 123 124 126 127 128 132 135 138 140 141 143 144 148 151 152 154 155 156 157 158 159 160
81 83 84 86 87 91 97 102 105 109 111 119 121 124 126 127 131 137 138 141 143 145 152 156 157 158 159
84 88 89 94 96 97 103 106 108 119 121 123 125 135 137 146 147 151 156 157 158
82 83 85 86 90 93 95 96 103 104 105 108 109 112 116 118 119 122 123 124 127 128 138 142 143 145 147 150 151 152 155 156 159 160
82 91 97 100 102 105 107 115 120 121 123 128 130 131 133 141 148 149 150 155 156 158 159 160
84 85 86 87 93 99 101 105 107 108 111 113 114 120 122 126 128 137 138 142 144 145 146 150 153 154 157 158 160
81 82 83 86 91 92 97 106 107 108 109 114 116 120 127 128 132 133 136 140 141 143 152 156 158 160
82 83 84 92 93 95 99 101 104 105 107 108 110 111 116 119 120 121 125 129 130 131 132 134 136 140 141 142 143 147 148 151 156 160
83 84 85 94 95 96 102 103 104 109 114 115 121 123 126 128 129 130 141 142 143 154 156 158 160
82 85 86 92 108 113 115 123 124 125 129 130 131 137 138 143 148 156 157
93 95 100 101 104 105 106 109 111 113 115 116 118 121 123 127 131 132 135 137 138 139 142 143 145 146 147 153 154 155 158
82 84 89 93 99 100 102 105 107 110 112 115 117 125 126 128 134 136 138 139 141 144 146 147 150 153 155
81 82 84 86 87 88 89 90 91 92 93 95 96 98 99 102 104 115 121 122 125 129 130 131 132 134 137 138 139 140 141 144 147 148 151 152 153 154 156
82 83 84 86 88 90 91 100 101 106 109 112 116 120 122 124 125 131 136 142 143 146 153 158 159 160
83 87 89 91 97 98 110 111 114 116 120 122 125 126 132 134 136 141 146 150 156 157 160
81 83 85 86 87 89 97 101 107 108 109 114 115 116 122 123 130 133 136 141 142 144 145 158 159
83 86 89 92 95 97 101 105 109 114 116 121 123 133 134 138 141 142 143 149 150 152 156
85 87 93 94 95 100 102 103 109 110 111 113 114 120 121 122 124 126 130 131 135 138 140 143 154 159 160
83 84 91 92 95 100 103 104 107 108 112 118 119 120 125 127 129 130 135 147 152 156 157
81 86 91 94 95 96 102 105 113 114 118 119 121 123 126 128 129 134 135 136 142 145 147 152 155
81 82 83 85 86 89 91 99 102 103 108 109 111 112 114 117 119 121 122 128 129 131 133 134 138 143 152 155 156 160
81 83 84 85 87 89 90 95 97 100 105 106 107 108 112 116 125 129 131 132 134 137 143 147 149 150 151 157 159
81 83 84 86 87 89 91 97 104 117 119 127 128 136 141 142 143 144 156 158 160
81 82 83 86 87 88 89 100 105 107 108 109 110 113 114 116 118 119 123 124 126 128 130 131 136 139 141 143 148 155 158 160
82 87 89 93 97 102 104 105 107 109 113 114 121 125 128 131 134 135 141 142 150 151 154 159 160
81 83 85 86 88 89 92 94 98 101 106 107 111 113 117 120 121 122 124 127 128 131 132 133 134 135 137 138 139 140 143 145 147 149 151 153 157
84 85 88 90 97 98 99 102 105 106 107 110 115 117 118 120 121 122 129 131 132 133 136 140 145 149 152 156 159
81 82 85 88 92 95 96 97 98 101 103 104 115 116 117 119 122 125 131 132 133 135 136 137 139 141 144 146 153 154 159
81 88 92 95 100 107 113 114 115 117 118 119 120 121 125 126 128 130 131 132 134 135 144 146 148 152 155 157 158
82 83 85 86 89 91 95 96 100 102 103 109 110 112 114 118 120 126 127 130 131 134 135 136 137 138 139 144 145 148 151 153 154 155
1 162
161 163
162 164
163 165
164 166
165 167
166 168
167 169
168 170
169 171
170 172
171 173
172 174
173 175
174 176
175 177
176 178
81 177
2 180
179 181
180 182
181 183
182 184
183 185
184 186
185 187
186 188
187 189
188 190
189 191
190 192
191 193
192 194
193 195
194 196
82 195
3 198
197 199
198 200
199 201
200 202
201 203
202 204
203 205
204 206
205 207
206 208
207 209
208 210
209 211
210 212
211 213
212 214
83 213
