0 3
0 4
0 5
0 8
0 9
0 15
0 18
0 19
0 20
0 21
0 22
0 26
0 28
0 30
0 31
0 37
0 38
0 39
0 40
0 42
0 51
0 53
0 54
0 55
0 64
0 65
0 67
0 69
0 75
0 77
0 78
0 79
0 160
1 3
1 4
1 5
1 8
1 14
1 15
1 16
1 17
1 20
1 24
1 26
1 27
1 28
1 32
1 35
1 38
1 41
1 44
1 45
1 49
1 50
1 51
1 52
1 56
1 58
1 60
1 62
1 67
1 68
1 72
1 75
1 178
2 5
2 9
2 11
2 12
2 17
2 18
2 19
2 21
2 23
2 26
2 27
2 33
2 35
2 39
2 40
2 42
2 45
2 46
2 47
2 48
2 51
2 53
2 63
2 64
2 65
2 66
2 67
2 68
2 72
2 73
2 75
2 77
2 79
2 196
3 5
3 6
3 8
3 10
3 14
3 17
3 19
3 22
3 25
3 28
3 31
3 32
3 34
3 38
3 39
3 40
3 42
3 43
3 50
3 51
3 52
3 54
3 60
3 62
3 63
3 67
3 69
3 71
3 73
3 76
3 79
4 5
4 7
4 9
4 11
4 12
4 13
4 14
4 15
4 19
4 21
4 26
4 28
4 30
4 32
4 35
4 36
4 37
4 40
4 42
4 45
4 46
4 47
4 50
4 53
4 54
4 56
4 63
4 64
4 65
4 70
4 73
4 76
4 77
4 79
5 6
5 9
5 11
5 13
5 14
5 15
5 20
5 23
5 24
5 27
5 34
5 36
5 37
5 38
5 42
5 43
5 45
5 46
5 48
5 57
5 58
5 63
5 65
5 71
5 72
5 76
5 77
5 78
6 12
6 21
6 22
6 24
6 25
6 30
6 32
6 35
6 36
6 37
6 38
6 39
6 44
6 46
6 48
6 51
6 52
6 53
6 54
6 55
6 59
6 60
6 65
6 74
6 79
7 8
7 18
7 21
7 22
7 25
7 29
7 32
7 36
7 38
7 39
7 40
7 41
7 47
7 49
7 50
7 52
7 53
7 57
7 65
7 68
7 76
8 13
8 17
8 18
8 19
8 20
8 21
8 23
8 25
8 28
8 29
8 30
8 35
8 39
8 40
8 44
8 45
8 50
8 54
8 56
8 59
8 67
8 68
8 70
8 71
8 74
8 76
9 12
9 25
9 26
9 28
9 30
9 32
9 36
9 39
9 40
9 41
9 42
9 43
9 46
9 47
9 48
9 50
9 52
9 53
9 55
9 58
9 60
9 70
9 71
9 74
9 77
9 78
9 79
10 14
10 15
10 19
10 22
10 24
10 26
10 27
10 28
10 31
10 33
10 35
10 43
10 47
10 48
10 50
10 53
10 58
10 59
10 64
10 65
10 66
10 67
10 68
10 69
10 75
10 76
11 16
11 18
11 19
11 25
11 30
11 31
11 34
11 36
11 38
11 40
11 43
11 44
11 45
11 46
11 51
11 52
11 54
11 55
11 58
11 59
11 60
11 64
11 66
11 71
11 75
12 16
12 24
12 31
12 37
12 38
12 45
12 47
12 56
12 60
12 62
12 63
12 64
12 67
12 70
12 71
12 72
12 77
12 79
13 15
13 21
13 22
13 23
13 25
13 27
13 28
13 31
13 36
13 38
13 39
13 42
13 43
13 44
13 46
13 49
13 50
13 53
13 55
13 60
13 63
13 65
13 68
13 69
13 71
13 72
13 73
13 76
13 77
13 78
13 79
14 15
14 16
14 17
14 18
14 20
14 22
14 26
14 27
14 32
14 35
14 37
14 39
14 40
14 45
14 46
14 51
14 53
14 54
14 57
14 59
14 62
14 64
14 66
14 67
15 17
15 18
15 20
15 23
15 25
15 27
15 29
15 30
15 38
15 39
15 41
15 47
15 53
15 55
15 59
15 60
15 65
15 66
15 67
15 70
15 72
15 74
15 76
15 79
16 17
16 18
16 20
16 21
16 22
16 25
16 27
16 28
16 30
16 33
16 35
16 42
16 43
16 45
16 46
16 47
16 54
16 55
16 58
16 66
16 68
16 70
16 71
16 73
17 20
17 21
17 24
17 35
17 46
17 48
17 53
17 57
17 60
17 63
17 64
17 65
17 66
17 70
17 72
17 74
17 75
18 23
18 25
18 30
18 33
18 36
18 45
18 46
18 47
18 49
18 53
18 55
18 57
18 61
18 64
18 65
18 70
18 73
18 74
18 75
19 27
19 31
19 32
19 34
19 38
19 39
19 41
19 42
19 43
19 46
19 47
19 52
19 54
19 56
19 59
19 62
19 65
19 69
19 71
19 72
19 75
19 76
19 79
20 26
20 27
20 28
20 29
20 38
20 40
20 43
20 44
20 45
20 46
20 51
20 53
20 55
20 56
20 64
20 66
20 67
20 78
20 79
21 23
21 27
21 30
21 31
21 32
21 33
21 37
21 38
21 41
21 45
21 52
21 54
21 55
21 61
21 65
21 66
21 68
21 70
21 76
21 77
21 79
22 25
22 27
22 28
22 33
22 36
22 37
22 38
22 39
22 54
22 57
22 58
22 62
22 63
22 65
22 66
22 67
22 69
22 70
22 71
22 76
23 24
23 26
23 27
23 29
23 33
23 34
23 36
23 39
23 41
23 43
23 44
23 45
23 48
23 50
23 51
23 52
23 53
23 57
23 60
23 61
23 64
23 67
23 69
23 71
23 72
23 73
23 74
23 78
24 29
24 30
24 31
24 36
24 37
24 40
24 45
24 46
24 47
24 51
24 53
24 56
24 57
24 62
24 63
24 66
24 67
24 69
24 74
24 75
24 76
24 79
25 27
25 28
25 30
25 31
25 32
25 36
25 38
25 39
25 41
25 44
25 45
25 49
25 55
25 57
25 64
25 67
25 71
25 72
25 75
25 77
25 78
26 27
26 32
26 38
26 41
26 42
26 44
26 45
26 46
26 47
26 48
26 51
26 52
26 55
26 63
26 67
26 69
26 70
27 31
27 35
27 36
27 39
27 42
27 48
27 50
27 51
27 52
27 53
27 56
27 61
27 62
27 64
27 65
27 66
27 71
27 74
27 76
28 30
28 33
28 34
28 37
28 39
28 40
28 41
28 44
28 45
28 49
28 50
28 52
28 56
28 58
28 62
28 66
28 67
28 69
28 70
28 71
28 72
28 73
28 74
28 77
28 79
29 32
29 33
29 37
29 38
29 41
29 42
29 43
29 44
29 45
29 46
29 47
29 50
29 52
29 55
29 58
29 59
29 63
29 67
29 68
29 69
29 75
30 32
30 41
30 50
30 54
30 58
30 59
30 61
30 65
30 69
30 73
30 78
31 33
31 34
31 38
31 39
31 43
31 44
31 45
31 50
31 51
31 53
31 58
31 59
31 61
31 68
31 73
32 42
32 43
32 45
32 46
32 47
32 50
32 51
32 55
32 58
32 59
32 62
32 63
32 70
32 72
32 75
32 79
33 37
33 40
33 42
33 44
33 49
33 50
33 51
33 53
33 55
33 57
33 58
33 59
33 60
33 61
33 63
33 64
33 67
33 76
33 77
34 35
34 41
34 46
34 47
34 48
34 49
34 56
34 63
34 66
34 68
34 71
34 76
34 79
35 37
35 43
35 46
35 49
35 54
35 57
35 60
35 64
35 66
35 74
35 79
36 39
36 41
36 44
36 46
36 47
36 48
36 50
36 51
36 52
36 54
36 55
36 56
36 58
36 60
36 62
36 64
36 65
36 67
36 68
36 71
36 72
36 76
36 77
36 79
37 38
37 41
37 46
37 58
37 60
37 61
37 67
37 69
37 70
37 76
37 77
37 79
38 41
38 43
38 45
38 46
38 55
38 56
38 60
38 63
38 64
38 67
38 70
38 71
38 72
38 73
38 74
38 78
39 40
39 41
39 43
39 46
39 48
39 49
39 50
39 51
39 56
39 63
39 65
39 67
39 68
39 77
40 43
40 44
40 45
40 52
40 55
40 56
40 62
40 63
40 68
40 69
40 73
40 76
40 79
41 43
41 45
41 46
41 47
41 50
41 52
41 53
41 67
41 69
41 75
41 77
41 78
42 44
42 54
42 55
42 56
42 60
42 61
42 63
42 64
42 65
42 67
42 68
42 72
42 75
42 76
42 78
42 79
43 47
43 48
43 49
43 53
43 56
43 58
43 61
43 66
43 67
43 68
43 69
43 70
43 74
43 75
43 77
43 78
44 45
44 46
44 49
44 50
44 52
44 59
44 62
44 63
44 64
44 66
44 71
45 46
45 47
45 49
45 53
45 58
45 60
45 64
45 68
45 70
45 71
45 76
45 77
45 79
46 49
46 50
46 52
46 59
46 66
46 71
46 72
46 73
46 74
46 79
47 49
47 50
47 56
47 63
47 66
47 69
47 70
47 76
47 77
47 78
47 79
48 54
48 62
48 63
48 66
48 72
48 73
48 75
48 79
49 59
49 60
49 63
49 64
49 68
49 73
49 74
49 75
49 77
50 55
50 63
50 77
51 55
51 62
51 69
51 70
51 74
51 75
51 77
52 53
52 56
52 57
52 58
52 64
52 67
52 72
52 74
52 76
52 79
53 55
53 57
53 60
53 62
53 64
53 66
53 67
53 69
53 71
53 72
53 74
53 78
53 79
54 57
54 59
54 61
54 62
54 63
54 66
54 67
54 69
54 78
54 79
55 56
55 64
55 71
55 72
55 74
56 58
56 59
56 62
56 65
56 66
56 68
56 69
56 74
56 77
57 58
57 60
57 62
57 63
57 66
57 73
57 74
57 78
57 79
58 61
58 67
58 69
58 72
58 74
58 76
58 79
59 61
59 62
59 64
59 66
59 68
59 73
59 76
59 78
59 79
60 62
60 63
60 64
60 65
60 67
60 68
60 69
60 72
60 74
61 62
61 66
61 69
61 72
61 75
61 76
61 79
62 65
62 68
62 72
62 75
62 77
63 65
63 67
63 68
63 72
63 74
63 77
64 66
64 67
64 68
65 67
65 69
65 75
65 78
65 79
66 67
66 71
66 77
66 79
67 68
67 71
67 78
68 69
68 75
68 76
68 79
69 73
69 76
70 72
70 73
70 78
71 76
71 77
72 73
72 74
72 75
73 77
73 79
74 75
74 76
74 79
75 78
76 77
77 78
80 81
80 85
80 88
80 90
80 96
80 97
80 98
80 99
80 101
80 102
80 105
80 109
80 112
80 113
80 114
80 123
80 124
80 127
80 128
80 129
80 130
80 131
80 136
80 142
80 145
80 149
80 150
80 151
80 152
80 153
80 155
80 157
80 158
80 177
81 85
81 94
81 95
81 105
81 106
81 109
81 115
81 116
81 120
81 121
81 122
81 128
81 129
81 130
81 133
81 134
81 136
81 137
81 139
81 141
81 142
81 143
81 150
81 153
81 154
81 157
81 159
81 195
82 84
82 85
82 87
82 89
82 90
82 96
82 97
82 105
82 106
82 108
82 111
82 112
82 113
82 114
82 116
82 117
82 128
82 130
82 131
82 133
82 136
82 137
82 138
82 143
82 144
82 145
82 146
82 148
82 150
82 151
82 152
82 153
82 155
82 159
82 213
83 85
83 86
83 94
83 105
83 127
83 131
83 132
83 135
83 137
83 138
83 141
83 142
83 143
83 148
83 151
83 152
83 156
84 85
84 86
84 87
84 94
84 104
84 106
84 109
84 110
84 111
84 116
84 118
84 120
84 121
84 128
84 133
84 135
84 138
84 139
84 145
84 147
84 150
84 151
84 155
84 156
84 157
84 159
85 90
85 92
85 100
85 101
85 105
85 107
85 112
85 115
85 119
85 120
85 121
85 125
85 128
85 131
85 133
85 135
85 136
85 139
85 142
85 143
85 145
85 146
85 149
85 150
85 152
85 153
85 155
85 159
86 88
86 91
86 99
86 101
86 108
86 110
86 118
86 119
86 124
86 127
86 129
86 131
86 135
86 142
86 144
86 145
86 147
86 151
86 152
86 153
86 154
87 89
87 90
87 93
87 96
87 100
87 106
87 113
87 115
87 121
87 130
87 132
87 142
87 143
87 153
87 155
87 156
87 157
87 158
88 90
88 91
88 93
88 96
88 98
88 99
88 100
88 102
88 105
88 106
88 112
88 113
88 114
88 120
88 121
88 125
88 126
88 127
88 130
88 132
88 141
88 142
88 144
88 145
88 146
88 150
88 151
88 152
88 153
88 154
88 155
88 159
89 90
89 93
89 95
89 103
89 108
89 111
89 121
89 127
89 129
89 133
89 142
89 143
89 151
89 156
90 91
90 92
90 93
90 94
90 95
90 96
90 97
90 98
90 99
90 100
90 107
90 109
90 111
90 117
90 118
90 120
90 122
90 123
90 124
90 129
90 130
90 131
90 134
90 136
90 142
90 143
90 144
90 148
90 149
90 150
90 152
90 159
91 93
91 99
91 100
91 101
91 103
91 108
91 111
91 114
91 116
91 119
91 120
91 125
91 127
91 129
91 130
91 136
91 137
91 139
91 142
91 146
91 148
91 155
91 157
91 158
92 93
92 101
92 104
92 105
92 107
92 108
92 111
92 112
92 115
92 116
92 118
92 120
92 122
92 124
92 126
92 127
92 130
92 133
92 135
92 137
92 140
92 141
92 142
92 147
92 154
93 94
93 96
93 98
93 101
93 103
93 104
93 105
93 109
93 112
93 114
93 116
93 117
93 118
93 119
93 123
93 126
93 128
93 130
93 132
93 138
93 147
93 149
93 155
94 95
94 96
94 97
94 100
94 102
94 103
94 108
94 109
94 115
94 117
94 118
94 127
94 129
94 133
94 137
94 138
94 140
94 142
94 146
94 147
94 148
94 149
94 151
94 157
94 158
94 159
95 96
95 100
95 106
95 112
95 117
95 118
95 121
95 125
95 126
95 128
95 132
95 133
95 138
95 142
95 149
95 157
95 159
96 97
96 100
96 101
96 103
96 104
96 106
96 111
96 112
96 115
96 117
96 118
96 119
96 121
96 126
96 128
96 129
96 130
96 131
96 132
96 134
96 136
96 144
96 145
96 146
96 151
96 152
96 154
96 156
96 157
97 99
97 101
97 105
97 112
97 114
97 115
97 122
97 123
97 125
97 142
97 144
97 155
97 156
97 157
98 100
98 101
98 102
98 108
98 112
98 113
98 114
98 117
98 121
98 125
98 127
98 129
98 135
98 137
98 141
98 142
98 150
98 156
99 101
99 102
99 104
99 107
99 108
99 111
99 115
99 118
99 119
99 122
99 125
99 127
99 134
99 140
99 141
99 143
99 147
99 148
99 151
99 153
99 158
99 159
100 102
100 103
100 107
100 112
100 116
100 119
100 121
100 123
100 126
100 127
100 128
100 130
100 135
100 137
100 140
100 143
100 145
100 146
100 155
100 157
101 103
101 104
101 106
101 107
101 109
101 110
101 111
101 116
101 120
101 122
101 128
101 130
101 131
101 134
101 138
101 141
101 142
101 147
101 149
101 150
101 154
101 156
101 159
102 103
102 104
102 108
102 115
102 116
102 117
102 120
102 128
102 132
102 133
102 138
102 147
102 148
102 150
102 157
102 159
103 104
103 105
103 107
103 113
103 114
103 120
103 121
103 122
103 127
103 129
103 133
103 137
103 138
103 140
103 142
103 148
103 152
103 154
103 157
104 107
104 108
104 111
104 113
104 114
104 115
104 119
104 120
104 129
104 130
104 131
104 133
104 134
104 135
104 137
104 140
104 141
104 146
104 149
104 151
104 153
104 154
104 156
105 106
105 108
105 110
105 113
105 116
105 117
105 120
105 121
105 123
105 126
105 128
105 132
105 136
105 140
105 143
105 151
105 155
105 156
106 108
106 111
106 112
106 119
106 120
106 121
106 122
106 124
106 125
106 126
106 128
106 134
106 135
106 136
106 137
106 141
106 145
106 148
106 151
106 153
106 154
106 155
106 156
106 158
107 110
107 112
107 114
107 115
107 117
107 119
107 127
107 129
107 132
107 133
107 135
107 136
107 137
107 139
107 145
107 148
107 150
107 151
107 153
108 111
108 112
108 114
108 118
108 121
108 130
108 131
108 133
108 136
108 138
108 140
108 143
108 145
108 146
108 147
108 150
108 153
108 154
108 159
109 112
109 114
109 115
109 116
109 117
109 118
109 124
109 126
109 127
109 129
109 137
109 141
109 144
109 147
109 153
109 156
109 159
110 111
110 112
110 113
110 116
110 123
110 127
110 128
110 131
110 135
110 137
110 140
110 144
110 147
110 150
110 155
111 115
111 118
111 121
111 122
111 124
111 125
111 126
111 128
111 130
111 133
111 141
111 143
111 148
111 150
111 151
111 159
112 114
112 115
112 117
112 120
112 121
112 123
112 129
112 135
112 139
112 140
112 147
112 149
112 153
112 154
112 155
112 158
113 114
113 115
113 119
113 121
113 125
113 127
113 135
113 136
113 138
113 144
113 145
113 146
113 147
113 149
113 150
113 153
113 154
113 158
113 159
114 116
114 117
114 118
114 120
114 125
114 128
114 134
114 138
114 139
114 140
114 141
114 142
114 145
114 156
114 157
114 158
115 117
115 122
115 123
115 124
115 129
115 133
115 136
115 137
115 140
115 143
115 144
115 145
115 146
115 151
115 153
115 157
116 117
116 120
116 123
116 124
116 125
116 129
116 130
116 141
116 150
116 152
116 155
116 156
116 157
116 158
117 118
117 120
117 122
117 123
117 128
117 129
117 130
117 133
117 140
117 148
117 149
117 153
117 156
117 158
117 159
118 120
118 127
118 131
118 132
118 133
118 137
118 148
118 149
118 150
118 152
118 153
118 157
118 158
119 122
119 123
119 124
119 125
119 134
119 135
119 136
119 137
119 143
119 144
119 147
119 148
119 155
119 156
119 158
119 159
120 122
120 123
120 125
120 126
120 127
120 130
120 131
120 132
120 134
120 137
120 138
120 140
120 142
120 146
120 147
120 149
120 150
120 154
120 155
120 156
120 158
121 122
121 124
121 127
121 128
121 130
121 133
121 135
121 142
121 143
121 144
121 145
121 147
121 150
121 155
121 156
121 157
122 124
122 130
122 132
122 133
122 134
122 138
122 139
122 140
122 145
122 146
122 149
122 153
123 127
123 129
123 130
123 131
123 133
123 139
123 143
123 147
123 153
123 155
124 126
124 129
124 132
124 137
124 139
124 141
124 142
124 143
124 144
124 148
124 151
124 154
124 157
124 158
125 127
125 128
125 130
125 131
125 135
125 138
125 141
125 144
125 147
125 149
125 153
125 158
125 159
126 130
126 131
126 133
126 136
126 140
126 148
126 152
126 155
126 159
127 128
127 130
127 133
127 134
127 135
127 136
127 138
127 141
127 149
127 150
127 152
127 153
127 154
127 155
127 158
128 137
128 138
128 139
128 142
128 148
128 149
128 150
128 151
128 156
129 134
129 137
129 138
129 139
129 142
129 145
129 147
129 148
129 153
129 158
129 159
130 131
130 134
130 137
130 139
130 140
130 142
130 143
130 147
130 150
130 151
130 153
130 154
130 155
130 156
130 157
130 158
130 159
131 136
131 137
131 140
131 142
131 144
131 151
131 155
131 156
131 157
131 158
132 134
132 136
132 145
132 146
132 150
132 155
132 156
132 157
133 137
133 141
133 142
133 144
133 146
133 149
133 150
133 151
133 154
133 155
133 158
133 159
134 140
134 147
134 148
134 149
134 154
134 155
134 157
134 158
134 159
135 136
135 137
135 141
135 143
135 144
135 145
135 149
135 152
135 153
135 156
135 157
135 159
136 139
136 140
136 142
136 151
136 155
136 157
136 159
137 139
137 140
137 141
137 142
137 146
137 147
137 150
137 155
137 159
138 140
138 141
138 142
138 153
138 155
138 157
138 159
139 142
139 147
139 155
139 156
140 141
140 142
140 144
140 145
140 146
140 152
140 153
140 154
140 157
141 143
141 145
141 146
141 149
141 152
141 154
142 143
142 146
142 147
142 150
142 151
142 152
142 153
142 155
143 145
143 152
143 157
143 158
143 159
144 145
144 149
144 155
144 156
144 159
145 157
145 158
146 148
146 149
146 151
146 155
147 153
147 158
147 159
148 151
148 155
148 156
149 151
149 154
150 151
150 154
150 155
150 159
151 156
151 158
152 155
152 157
152 159
153 154
153 157
153 159
154 158
154 159
155 156
156 158
157 158
160 161
161 162
162 163
163 164
164 165
165 166
166 167
167 168
168 169
169 170
170 171
171 172
172 173
173 174
174 175
175 176
176 177
178 179
179 180
180 181
181 182
182 183
183 184
184 185
185 186
186 187
187 188
188 189
189 190
190 191
191 192
192 193
193 194
194 195
196 197
197 198
198 199
199 200
200 201
201 202
202 203
203 204
204 205
205 206
206 207
207 208
208 209
209 210
210 211
211 212
212 213
