270 933
2 10 14 15 16 17 19 20 25 27 29 30 31 35 36 37 45 52 58 60 61 62 93 103 111 160 162
1 6 8 9 14 16 19 27 28 31 34 38 40 43 46 47 52 55 56 66 67 68 144 167 179 190 211 215 254 266
7 8 10 11 20 21 23 27 28 30 34 40 41 44 47 48 49 53 54 58 59 61 63 64 65 66 108 126 178
6 7 8 13 14 16 23 24 26 30 41 45 46 51 53 68 83 259 262
6 12 16 18 24 25 26 31 32 37 39 40 42 43 45 47 48 49 52 53 57 58 66 79 217 243
2 4 5 10 11 12 13 15 20 23 26 28 29 30 31 36 39 40 41 42 45 48 49 51 53 63 64 176 196 229
3 4 14 17 19 21 22 27 28 33 36 37 43 48 51 52 54 56 57 61 63 64 66 67 68 151 241 253
2 3 4 9 15 17 19 20 21 24 27 28 30 33 34 38 40 45 50 52 55 58 59 60 65 66 106 125 205
2 8 11 14 16 17 19 22 25 27 29 32 33 34 38 39 45 46 50 54 56 58 61 63 65 67 78 224
1 3 6 12 13 14 15 16 17 22 24 28 33 34 39 41 42 43 48 51 52 54 55 59 60 61 62 64 65 91 116
3 6 9 14 18 20 29 30 34 35 36 38 40 43 45 46 52 53 54 55 56 60 68 107 139 154 165 191
5 6 10 15 18 21 22 28 32 38 39 41 43 49 53 62 64 66 80 85 112 114 157 180
4 6 10 16 17 19 20 22 29 32 33 35 38 59 61 66
1 2 4 7 9 10 11 15 16 24 26 33 35 38 42 46 48 50 53 54 62 63 64 65 67 98 102
1 6 8 10 12 14 16 17 22 25 26 32 36 41 44 46 48 49 50 51 52 55 58 61 132 152 214
1 2 4 5 9 10 13 14 15 17 21 23 31 34 40 41 42 43 44 45 47 52 53 54 55 59 61 67 68 127 131 249 252
1 7 8 9 10 13 15 16 19 20 25 28 33 34 39 48 50 52 56 62 117 153
5 11 12 20 22 26 28 30 32 34 36 37 38 40 48 50 54 58 59 61 62 65
1 2 7 8 9 13 17 20 28 30 32 33 38 39 40 45 52 54 57 59 60 63 66 67 82 99 142 161 218 263
1 3 6 8 11 13 17 18 19 24 27 31 39 45 47 48 49 53 54 55 57 60
3 7 8 12 16 23 34 36 37 43 46 48 50 51 59 65 66 68 147 164 170
7 9 10 12 13 15 18 26 30 33 36 42 43 45 46 47 52 60 67 129 181 193
3 4 6 16 21 25 26 27 41 49 51 55 56 62 64 66 146
4 5 8 10 14 20 25 31 33 34 39 43 46 51 52 56 57 58 63 64 68 90
1 5 9 15 17 23 24 29 34 37 38 41 42 44 48 49 59 60 68 207 231
4 5 6 14 15 18 22 23 27 33 34 36 43 52 54 59 61 64 65 68 195 216
1 2 3 7 8 9 20 23 26 30 34 36 45 46 49 50 51 56 59 63 66 75 101 130
2 3 6 7 8 10 12 17 18 19 32 34 35 37 50 53 58 61 62 63 65 67 76 86 88
1 6 9 11 13 25 33 34 38 44 46 47 55 65 67 150 209 234
1 3 4 6 8 11 18 19 22 27 33 36 37 41 42 44 51 55 67 68 169 248 267
1 2 5 6 16 20 24 35 36 38 49 52 54 56 57 59 60 61 66 67 202
5 9 12 13 15 18 19 28 46 50 51 52 58 60 62 63 66 67 261
7 8 9 10 13 14 17 19 22 24 26 29 30 34 35 36 37 39 46 47 52 55 58 61 62 68 120 149 168
2 3 8 9 10 11 16 17 18 21 24 25 26 27 28 29 33 38 39 41 44 45 50 52 61 64 66 84 198 242
1 11 13 14 28 31 33 36 44 45 48 54 65 68 92 148 171 244
1 6 7 11 15 18 21 22 26 27 30 31 33 35 37 41 44 50 57 63 65 115 222
1 5 7 18 21 25 28 30 33 36 39 41 42 44 48 50 52 56 60 97
2 8 9 11 12 13 14 18 19 25 29 31 34 43 44 45 47 50 51 55 58 89 105 145 256
5 6 9 10 12 17 19 20 24 33 34 37 43 45 48 51 53 57 58 62 64 185 221 269
2 3 5 6 8 11 16 18 19 42 44 48 50 53 55 56 58 61 63 66 68 156 175 223
3 4 6 10 12 15 16 23 25 30 34 36 37 43 46 55 60 62 66 68 94 220
5 6 10 14 16 22 25 30 37 40 43 45 46 49 59 61 63 65 68 70 177
2 5 7 10 11 12 16 21 22 24 26 38 39 41 42 45 46 47 48 53 58 62 64
3 15 16 25 29 30 34 35 36 37 38 40 47 49 53 54 55 58 63 66 110 140 189 238 255 257
1 4 5 6 8 9 11 16 19 20 22 27 34 35 38 39 42 43 57 58 59 63 68 104 258
2 4 9 11 14 15 21 22 24 27 29 32 33 41 42 43 51 53 55 56 57 60 62 66 67 68 135 136 172 250
2 3 5 16 20 22 29 33 38 43 44 49 50 53 54 55 61 62 64 67 68 87
3 5 6 7 10 14 15 17 18 20 21 25 35 37 39 40 43 51 59 62 66 174 188
3 5 6 12 15 20 23 25 27 31 42 44 47 52 55 60 61 64 118 260
8 9 14 15 17 18 21 27 28 32 34 36 37 38 40 47 52 57 58 62 64 119 121 225 233 247 270
4 6 7 10 15 21 23 24 27 30 32 38 39 46 48 56 57 58 59 63 65 66 81 100 227
1 2 5 7 8 10 11 15 16 17 19 22 24 26 31 32 33 34 37 49 50 54 58 59 62 65 67 173 199 232
3 4 5 6 11 12 14 16 20 28 39 40 43 44 46 47 56 57 58 60 64 71 235
3 7 9 10 11 14 16 18 19 20 26 31 35 44 47 52 55 57 59 62 66 67 68 194 246
2 8 10 11 15 16 20 23 29 30 33 38 40 41 44 46 47 49 54 64 66 201 204
2 7 9 11 17 23 24 27 31 37 40 46 51 53 61 63 74 77
5 7 19 20 24 31 36 39 45 46 50 51 53 54 60 63 237 239
1 3 5 8 9 15 18 24 28 32 33 38 39 40 43 44 45 50 51 52 53 59 60 61 65 66 200 206
3 8 10 13 16 18 19 21 25 26 27 31 42 45 48 51 52 54 58 60 66 68 113 138
1 8 10 11 19 20 22 25 31 32 37 41 46 49 53 57 58 59 64 65 68 128 184
1 3 7 9 10 13 15 16 18 26 28 31 33 34 40 42 47 49 56 58 64 133 182 236
1 10 12 14 17 18 23 28 32 33 39 41 43 46 47 48 50 52 54 63 65 68
3 6 7 9 14 19 24 27 28 32 36 40 42 44 45 51 56 57 62 64 95 166
3 6 7 10 12 14 23 24 26 34 39 43 47 49 50 53 55 60 61 63 68 155
3 8 9 10 14 18 21 26 28 29 35 36 42 51 52 58 60 62 66 68 73 124 134 187 251
2 3 5 7 8 12 13 19 21 23 27 31 32 34 40 41 44 46 48 51 54 55 58 59 65 109
2 7 9 14 16 19 22 28 29 30 31 32 46 47 52 54 68 69 122
2 4 7 11 16 21 24 25 26 30 33 35 40 41 42 45 46 47 54 59 60 62 64 65 67 265
67 72 212
42
53 96
69
65
56
27
28
56
9 183
5
12 143
51 203
19
4
34
12
28
47
28
38
24
10 197
35
1
41
63
71
37
14 123
19 230
51
27
14
1
45
38
8
11
3
66
44
1
12 137
59
12
36
10
17
49
50
33
50
67
98
65
8
3
16 186
60 141
22
27
16
15
61
65
46
46
112 163
59
11
44
128
19
80
2 159
38
23
21
35
33
29
7
15
17
11 158 210
64 240
40
12
154
144
1
19
1
137
21
11
63
2
33
30
21
35
46 192 208 219
52
48
40
6
42
3
2
12
22
61
78
60
39
127
65
48
44
2
11 245
172
22 226
54
26
6 213
91
34
52
58
55
31
81
55
8
58
25
172 228
29 268
154
2
69
196
15
2
26
5
19
172
41
39
36
40
9
50
193
51 264
208
6
99
25
52
50
29
53
61
57
44
57
155
7
34
5
35
191
54
50
30
16
46
65
16
7
2
44
38
44
45
4
49
32
4
19
227
68
2
30
209
39
50
