216 1081
9 26 27 43 46 51 52 95 118 123 168 180 183 202
28 37 39 75 123 141 194
6 8 24 41 42 47 49 52 62 77 101 119 133 144 164
23 26 49 131 137 148
22 23 29 36 37 38 45 52 93 96 120 130 152 153 158 185
3 8 13 14 15 20 29 42 163
10 15 123 141 146 194
3 6 11 35 47 54 95 113 142 143
1 19 33 35 44 46 103 181 198
7 12 18 31 33 90 195 198
8 23 28 32 88
10 19 35 36 177
6 14 23 27 38 40 50 77
6 13 17 18 21 22 24 31 43 48 50 51 55 93 99 129 137 144 183
6 7 24 34 35 37 53 205
22 31 45 46 122
14 36 37 49 60 87 114 122 131 132 140 200
10 14 20 25 84 131 201
9 12 31 37 45 71 74
6 18 27 38 49 107 139 165 175 203
14 29 43 49 51 73 112 140 141 180 203 209
5 14 16 27 53 57 122 178 212
4 5 11 13 29 32 34 46 47 49 70 72 121 136 203
3 14 15 35 36 53 92 112 171
18 42 48 49 110 130 131 201
1 4 28 59 166 169 179 203
1 13 20 22 53 66 145 175 178 190
2 11 26 34 41 51 52 53 120 171 176 195
5 6 21 23 52 106 138 197
42 71 197 203
10 14 16 19 38 48 51 86 119 153 162
11 23 34 49 125 132 170 176 200
9 10 34 42 50 52 62 112 144 154 183 193 205
15 23 28 32 33 41 47 52 82 100 167 190
8 9 12 15 24 46 95 140 162 163
5 12 17 24 50 51 114 137 149 186
2 5 15 17 19 47 77 83 108 113 159 167
5 13 20 31 49 59 63 102 158 176
2 54 143 150 159 196 206
13 76 79 104 115 133 135 168 179 192 198
3 28 34 47 92 133 155 157 158 174
3 6 25 30 33 53 88 94 111 152
1 14 21 64 144 163 186 207 215
9 46 88
5 16 19 65 79 93 97 114 213
1 9 16 23 35 44 50 51 69 110 130 166 167 196 198 202
3 8 23 34 37 41 89 118 157 169 172 178 180 212
14 25 31 50 54 93 94 151 171
3 4 17 20 21 23 25 32 38 127 130 173 193 206 214
13 14 33 36 46 48 65 70 110 134 154 213 215
1 14 21 28 31 36 46 143 151 155
1 3 5 28 29 33 34 135 163 172 195
15 22 24 27 28 42 74 159 196 207
8 39 48 64
14 58 67 73 79 81 85 108 112
66 79 80 82 111 144 155 159 212
22 59 66 82 94 98 102 103
55 60 65 96 101
26 38 57 64 65 83 85 95 97 100 108 120 156
17 58 68 79 90 197
83 142 144 211
3 33 73 77 86 92 160 173 185 193 208
38 101 103 171 183 189 198
43 54 59 66 80 81 184 195 206
45 50 58 59 84 88 106 151 215
27 56 57 64 70 78 83 90 99 155
55 73 85 86 89 90 97 110 143 149 159 173
60 79 91 98 101 106 125
46 70 72 87 97 98 108 126 216
23 50 66 69 72 73 74 76 91 93 94 116 123 127 145 148 185 206
19 30 82 85 102 111 123 187 192 208
23 69 70 89 135 168 204
21 55 62 67 70 82 87 90 92 105 175
19 53 70 85 105 106 215
2 81 84 98 105 136 172
40 70 92 108 145 168 181
3 13 37 62 101 102 108 125 145 162 174 178 203
66 79 94 95 98 155 177 184
40 45 55 56 60 68 78 96 109 111 121 132 133 140 151 180 192
56 64 97 100 105 156 205
55 64 75 102 120 164
34 56 57 71 73 89 102 112 156 180 187 206 209
37 59 61 66 88 91 93 107 110 144 146 147 148 149 159 187
18 65 75 88 92 94 118 190
55 59 67 71 74 86 92 104 112 155 205
31 62 67 85 105 122 149 198
17 69 73 89 96 125 140 177 189 211
11 42 44 65 83 84 105 112
47 67 72 82 87 97 138 213
10 60 66 67 73 94 95 98 100 101 138 192 203
68 70 83 97 123 145 159 174 212
24 41 62 73 76 84 85 95 127 184
5 14 45 48 70 83 94 130 177 180 204 213
42 48 57 70 78 84 90 93 104 140 188
1 8 35 59 78 90 92 101 108 206
5 58 79 87 162 165 179
45 59 67 69 80 89 91 99 145 162 215
57 68 69 75 78 90 192
14 66 97 112 132 140 180
34 59 80 90 101 103 129 147 153 159 164 169 181 201
3 58 63 68 77 90 95 100 118 151 153 197
38 57 71 77 81 82
9 57 63 100 190
40 85 94 108 150 176 191 206
73 74 75 80 86 88 120 161
29 65 68 74 139 141 191 198 210
20 83 129 186
37 55 59 69 76 77 95 104 205 207
79 111 127 130 134 136 142 172 178 193
25 46 50 67 83 124 139 160 194 209
42 56 71 79 109 113 127 130 146 163 183
21 24 33 55 82 85 88 99 113 114 116 121 131 198
8 37 111 112 130 141 143 148 149 150 161 190 208
17 36 45 112 115 116 125 128 132 147 159 176 191 200 207
40 114 121 126 128 151 153 195
70 112 114 121 122 135 146
129 131 140 142 143 153
1 47 84 101 121 123 132 139 152 158 168
3 31 133 142 154
5 28 59 81 105 121 135 136 147 151 153 161
23 79 112 115 116 118 120 132 137 138 142 144 145 155 176 215
16 17 22 86 116 124 125 148 149 152 169
1 2 7 70 71 91 118 129 146 149 160 175 177
110 122 146 148 150 161 212
32 68 77 87 114 122 131 137 140 143 181 201
69 115 128 135 178
49 70 92 109 111 130 131 133 137 145 173 211
114 115 126 133 150 158 159 162 190 200
14 100 107 117 123 134 140
5 25 46 49 93 109 111 113 127 145 151 158 162 189
4 17 18 25 112 117 125 127 165 193 211
17 32 79 99 114 118 121 135 138 198
3 40 41 79 119 127 128 145 161 177 203
50 109 129
40 52 72 116 120 126 132 137 143 154 158 164 204
23 75 109 120 137 141 144 199
4 14 36 121 125 127 135 136 156 185 200 212
29 89 90 121 132 145 149 156
20 106 110 118 142 160 180 181 203
17 21 35 79 87 94 99 117 125 129 145 161 162 182 202
2 7 21 106 113 136 143 158 191
8 61 109 117 119 121 139 150 152 160
8 39 51 67 113 117 125 135 141 149
3 14 33 43 56 61 83 121 136 151 181 206
27 70 76 77 91 97 121 127 130 133 138 140 148 153 193 214
7 83 111 116 123 124 150 176
83 100 114 120 171 174
4 70 83 113 122 124 145 154 159
36 67 83 86 113 122 123 138 143 159 162 163 181
39 104 113 124 128 142 146 152 163 210 214
48 51 65 79 101 115 120 130 144 157
5 42 118 122 142 150 160 175 207
5 31 100 101 115 117 120 145 158 159
33 50 119 135 148 173
41 51 56 66 78 85 121
59 80 82 137 138 188
41 47 151 181 205
5 38 41 118 128 130 135 141 153
37 39 53 56 67 83 91 100 114 128 148 149 153 209
62 110 123 139 142 152 195 197 198
105 113 120 124 133 140 162 174 204
31 35 77 96 97 128 130 140 149 161 187
6 35 43 52 111 149 150 164 172 181 186 189 191 196 197 198 214
3 81 100 135 163 176 191 194 204 214 216
20 96 131 177 183 190 195 200 203 211 212
26 46 168 171 174 182 189 194 199 203 205
34 37 46 170 171 176 181 194
1 40 72 76 118 166 170 174 177 183 187 188 190 195 214
26 47 100 122 170 173 182 183 192
32 167 168 169 190 193 202 203 209 211
24 28 48 63 147 166 167 174 177 178 182 215 216
47 52 75 109 163 173 183 206 209
49 62 67 127 154 169 172 178 184 186 190 196 206 209
41 77 91 147 161 166 168 171 175 177 188 195 198
20 27 73 123 152 174 177 191 212 213 216
28 32 38 104 114 121 146 164 167 183 185 195 199 203 215
12 78 87 93 123 133 165 168 171 174 175 182 214
22 27 47 77 109 126 171 173 212
26 40 96 187 189 195
1 21 47 79 82 93 99 139 186 195 207 209 211
9 76 100 125 139 144 149 157 163 167 192 193 197 205
140 166 169 171 177 188 198 199 203 210 211
1 14 33 63 111 165 168 169 172 176 188 191 197 200
64 78 92 173 189 200 201 205 210 211
5 62 70 137 176 215
36 43 107 163 173 180 188 192 198
71 82 83 162 168 179 188 193 196
94 156 168 174 182 183 186 187 192 204 206 214
63 87 130 163 166 179 184 195 199 205
27 34 84 103 113 128 165 168 170 173 196 198 201 210
104 106 114 141 163 164 175 183 207
40 71 79 90 98 169 181 186 188 211
33 49 62 109 131 145 170 181 187 201 211 212 216
2 7 110 164 166 167 207
10 28 52 64 115 160 165 168 174 176 179 180 189 196 200 204 206
39 46 53 163 173 187 190 195 204 208 213
29 30 60 101 160 163 181 183 200 208 209
9 10 40 46 63 86 106 112 132 160 163 174 182 186 190 201
136 166 176 182 189 208 215
17 32 114 128 137 165 183 184 195 197 216
18 25 100 125 184 190 193 198
1 46 140 170
20 21 23 26 30 77 90 133 139 165 166 170 176 182 207 210 213 215
72 93 135 161 164 188 195 196 205 209
15 33 80 85 108 157 166 181 184 189 204 213
39 49 64 70 82 95 104 144 172 173 188 195 209 211 214
43 53 108 114 152 180 191 194 203 208 210
62 71 113 196 197 199 207
21 82 110 159 170 172 173 180 197 204 206
106 150 182 184 190 203 207 211 213
61 87 127 131 165 170 180 182 184 192 193 206 210 216
22 47 56 91 124 137 165 175 178 193
45 50 89 93 175 196 203 205 210
49 145 150 163 164 168 177 188 206
43 50 65 74 97 121 171 176 185 199 203
69 164 171 175 193 200 211
