160 523
21 25 77 81 97 151
16 25 28 32 34 40 98 136
8 11 16 29 37 48 108
13 30 45 61 75 90 114 133
10 13 16 25 31 40 78 142
10 34 41 120 132
12 15 33 97 140
3 11 32 36 98 107 147 149
18 21 23 71 95
5 6 12 32 33 51 77 124
3 8 15 16 47 70
7 10 13 33 73 95 112 137
4 5 12 15 18 26 40 151 152 153
29 42 103 139 154
7 11 13 18 22 26 27 40 54 61 86 106
2 3 5 11 24 26 28 29 35 71 74 78
32 35 40 64 101 105 116
9 13 15 21 41 77 100 135 142
42 65 72 132
39 104
1 9 18 26 30 46 55 62
15 37 65 68 92 115 153
9 29 33 34 79 111 117 134 142
16 29 40 74 134
1 2 5 26 88 109
13 15 16 21 25 29 31 77 84 109
15 61 106
2 16 29 59 62 73 141
3 14 16 23 24 26 28 40 43 59 128 136
4 21 36 40 71 88
5 26 139 140
2 8 10 17 72 94 111
7 10 12 23 38 40 47 64
2 6 23 40 69 145 155
16 17 37 38 46 137
8 30 47 48 76 133
3 22 35 95 110
33 35 55 76 118 145
20 149 158
2 5 13 15 17 24 29 30 33 34 59 135
6 18 51 52 70 76 78 130
14 19 53 57 61 62 64 65 97 158
29 52 104 122 140
46 53 84 90
4 74 95 106
21 35 44 47 50 58 65 92 100 102 104
11 33 36 46 48 49 63 67 78 87 116 143
3 36 47 60 158
47 60 63 75 148
46 51 54 64 72 74 102 116
10 41 50 57 67 116 141 159
41 43 57 70 97 115 157
42 44 89 117
15 50 58 69 113 117 125 142 160
21 38 58 61 66 77 80 90 142
60 69 72 114 131 143 152 157 158
42 51 52 64 74 98 117 140 158
46 54 55 63 108
28 29 40 69 87
48 49 56 117 139 149
4 15 27 42 55 69
21 28 42
47 49 58 75 94
17 33 42 50 57 69 75
19 22 42 46 72 155
55 67
47 51 66 70 74 77 107 117
22 73 76 82 92 138
34 54 56 59 61 64 87
11 41 52 67 91 105 148
9 16 30 122
19 32 50 56 65 92 95 111 145
12 28 68 119 125 144 146
16 24 45 50 57 67 85 110 157
4 49 63 64 76 93
36 38 41 68 75 77 79 127 155
1 10 18 26 55 67 76 106 113
5 16 41 47 109 114 140
23 76 87 114 125
55 113
1 87 117 118 120 154
68 85 110 114 115
87 98 99 100 106 108 109 111 122
26 44 88 95 104 105 110 114 144 149
74 82 96 102 103 118
15 99 104 111 133
47 59 69 79 81 83 93 96 101 102 105 111 118 152
25 30 84 98 99 103 118
53 91 144
4 44 55 100
70 89 102 113 123 130 155
22 46 68 72 113 152
75 87 105 106
32 63 111 112
9 12 37 45 72 84 98 102 107 109 119
85 87 109 115
1 7 42 52 99 156 160
2 8 57 83 88 95 99 111 149 158
83 86 88 97 98 102 117 119 127 159
18 46 83 90 113 117
17 87 102 112 134
46 50 85 87 91 95 99 101
14 85 88 106 116
20 43 46 84 86 105 116 158
17 70 84 87 93 104 108 125
15 27 45 77 83 93 103 117 119
8 67 95 109 110 116 142 157
3 58 83 105 117
25 26 78 83 95 96 107 130 133
37 74 82 84 107 134
23 32 72 83 86 87 94 98 118 124
12 94 101 119
54 77 80 91 92 100
4 56 78 79 82 84 145 151
22 52 82 96 116 117 145
17 47 50 51 103 104 107 115 122
23 53 54 57 60 67 81 99 100 106 108 115 119
38 81 85 87 88 111 119
73 95 99 106 112 117 118 154
6 81 157
122 142 151 160
43 71 83 116 121 150 152 160
91 130
10 111 129
54 73 79 105 126 134 158
125 130
76 99 131
29 131 146
124 144
41 91 109 123 126 132 135
56 127 128 132 143 155
6 19 130 131 136 144 150 153
4 36 86 109 139 148 155 156
23 24 101 110 125 139 143 152
18 40 130 141 156
2 29 132 154 160
12 35 152
68 140 145
14 31 60 133 134
7 31 43 57 78 138 143 144
28 51 135 144
5 18 23 54 55 107 121 148
47 56 131 134 140 145 150
73 84 89 129 132 140 141
34 38 72 114 115 138 143 160
73 128 157
8 152
49 70 133 142 149
8 39 60 84 98 148 158
122 132 143 152 160
1 13 114 121 159
13 56 87 92 122 134 137 147 150
13 22 132
14 81 119 136 155
34 65 76 91 131 133 154
97 133 135
52 56 74 107 120 146
39 42 48 56 57 98 104 125 149 160
51 99 151
54 97 121 122 136 145 150 158
