200 530
5 12 15 16 19 27 29 33 34 35 41 42 44 46 47 48 50 63 78 90 105 109 175
3 12 13 15 17 20 22 31 34 40 41 45 49
2 6 7 13 14 15 20 22 23 25 30 31 38 39 40 43 45 91
5 7 8 12 19 21 23 24 25 28 29 33 37 39 40 42 45 49 83 92
1 4 9 12 13 14 17 24 26 29 30 32 36 42 46 47 59 76 101
3 9 13 18 26 30 34 40 43 44 45 47 49 50 57 89 157 167
3 4 9 11 13 15 19 21 28 29 30 32 39 44 46 47 48 64
4 15 23 27 30 35 36 39 41 42 43 46 49 159
5 6 7 12 13 21 26 33 36 39 40 47 48 50 103 112 134
11 17 18 24 25 26 27 28 30 36 43 44 45
7 10 14 15 17 20 21 23 24 27 30 33 35 41 44 48 133
1 2 4 5 9 22 23 26 30 38 42 49
2 3 5 6 7 9 22 24 25 26 28 29 31 42 44 46 48 50 149
3 5 11 18 20 27 28 31 34 35 40 45 46 47 50 185
1 2 3 7 8 11 20 23 24 26 33 37 41 42 44 73 97 128 131 132 176
1 19 21 22 27 33 34 43 49 60 115 172
2 5 10 11 28 30 31 32 34 36 37 44 46 48 71 74 86 95 110 127 143 158 163 165
6 10 14 24 25 26 27 33 37 38 42 43 44 50 107 119 162
1 4 7 16 22 27 30 32 33 42 44 46 47 50 129 130 174
2 3 11 14 15 24 26 27 32 34 35 40 41 46 50
4 7 9 11 16 24 30 38 42 44 46 48 50 56 116 156 173 177
2 3 12 13 16 19 24 26 34 35 37 48 67 87 150
3 4 8 11 12 15 27 32 33 35 36 37 53
4 5 10 11 13 15 18 20 21 22 29 30 31 38 39 41 44 45 46 49 88 145 171
3 4 10 13 18 28 29 30 33 35 36 37 41 43 44 45 68 125 164 199
5 6 9 10 12 13 15 18 20 22 27 32 37 38 39 42
1 8 10 11 14 16 18 19 20 23 26 30 35 39 41 43 44 45 50
4 7 10 13 14 17 25 33 39 40 48 50 152
1 4 5 7 13 24 25 32 42 46 48 106 146
3 5 6 7 8 10 11 12 17 19 21 24 25 27 37 40 41 44 48 169 197
2 3 13 14 17 24 33 34 38 39 43 48 49 69 72 96 151
5 7 17 19 20 23 26 29 34 38 43 44 46 48 77 117
1 4 9 11 15 16 18 19 23 25 28 31 34 35 36 41 44 46 48 49 50 84 100 136 141 155 184
1 2 6 14 16 17 20 22 31 32 33 35 37 40 49 104
1 8 11 14 20 22 23 25 27 33 34 37 39 40 42 44 49 51
5 8 9 10 17 23 25 33 37 38 40 47 50
4 15 17 18 22 23 25 26 30 34 35 36 40 48 94 181 198
3 12 18 21 24 26 31 32 36 41 42 46 50 61
3 4 7 8 9 24 26 27 28 31 35 40 41 43 49
2 3 4 6 9 14 20 28 30 34 35 36 37 39 46 47 48 50 58 81 135 188
1 2 8 11 15 20 24 25 27 30 33 38 39 43 44 47 55 70 93 120
1 4 5 8 12 13 15 18 19 21 26 29 35 38 43 44 48 50 178
3 6 8 10 16 18 25 27 31 32 39 41 42 44 46 48 49 50 80 82 196
1 6 7 10 11 13 15 17 18 19 21 24 25 27 30 32 33 35 41 42 43 62 75 108 118 187 192
2 3 4 6 10 14 24 25 27 50 65 139 148 180
1 5 7 8 13 14 17 19 20 21 24 29 32 33 38 40 43 66 123 138
1 5 6 7 9 14 19 36 40 41 52 113
1 7 9 11 13 17 21 22 28 29 30 31 32 33 37 40 42 43 50 79 102 200
2 4 6 8 12 16 24 31 33 34 35 39 43 50 142 153 186
1 6 9 13 14 18 19 20 21 27 28 33 36 38 40 42 43 45 48 49 54 114 154
35
47
23
50 85
41
21 126
6
40
5
16
38
44
1
7
45
46
22
25
31
41
17
31
15
17 111
44 144 147
5
32
1
48
43
40 140
43
4
33
54
17
22
24 182
6 98
1
3 189
4 195
41 99 121
37
17
31
15
89 122
93
33
5 190
48
9
34 137
1
29 191
18
44
1
17
74
9
47
50 124
16
21
32
44
18
41
93
98
46 170
114
25
56 179
17 183
15
19
19
15
15
11
9 166
40
33
104
46
45 160 194
81
33
49
17
75
24
29
75
45 161
13
22
31
28
49
50
33
21
6
17
8
139
148
18
17
25 168
17
134
6
164
30
123
24
16
21 193
19
1
15
21
42
126
45
37
88
127
33
14
49
44
40
91
101
106
44
173
139
92
43
30
37
25
48
