0 1
0 21
1 22
2 3
2 23
3 4
3 24
4 5
4 25
4 144
5 6
5 26
6 7
6 27
7 8
7 28
8 9
8 29
9 10
9 30
10 11
10 31
11 12
11 32
12 13
12 33
13 14
13 34
14 15
14 35
15 16
15 36
16 17
17 18
17 38
18 19
18 39
19 20
19 40
20 41
21 22
21 42
22 23
22 43
23 24
23 44
24 25
24 45
25 26
25 46
26 27
26 47
27 28
27 48
28 49
29 30
30 31
30 51
31 32
31 52
32 33
32 53
33 34
33 54
34 35
34 55
35 36
35 56
36 37
36 57
37 38
37 58
38 39
38 59
39 40
39 60
40 41
41 62
42 43
42 63
43 44
43 64
44 45
44 65
45 46
45 66
46 47
46 67
47 48
47 68
48 49
48 69
49 50
49 70
50 51
50 71
51 52
51 72
52 53
52 73
53 54
53 74
54 55
54 75
55 56
55 76
56 57
56 77
57 58
57 78
58 59
58 79
59 60
59 80
60 81
61 62
61 82
62 83
63 64
63 84
64 65
64 85
65 66
66 67
67 68
67 88
68 69
68 89
69 70
69 90
70 71
70 91
71 92
72 73
72 93
73 94
74 75
74 95
75 76
75 96
76 77
76 97
77 78
77 98
78 79
78 99
79 100
80 81
80 101
81 82
81 102
82 83
82 103
84 85
84 105
85 86
85 106
86 87
86 107
87 88
87 108
88 89
89 90
89 110
90 91
90 111
91 92
91 112
92 113
93 94
93 114
94 95
94 115
95 96
95 116
96 97
96 117
97 98
97 118
98 99
98 119
99 100
99 120
100 101
100 121
101 102
101 122
102 103
102 123
103 104
103 124
104 125
105 106
105 126
106 107
106 127
107 108
107 128
108 109
108 129
109 110
109 130
109 210
110 111
110 131
111 112
111 132
112 113
112 133
113 114
114 115
114 135
115 116
115 136
116 117
116 137
117 118
117 138
118 119
118 139
119 120
119 140
120 121
120 141
121 122
121 142
122 123
122 143
123 124
123 144
124 125
124 145
125 146
126 127
126 147
127 128
127 148
128 129
128 149
129 130
129 150
130 131
130 151
131 132
131 152
132 133
132 153
133 134
133 154
134 135
134 155
135 136
135 156
136 157
137 138
137 158
138 139
138 159
139 140
139 160
140 141
140 161
141 142
141 162
142 143
142 163
143 144
143 164
144 165
145 146
145 166
146 167
147 148
147 168
148 149
148 169
149 150
149 170
150 151
150 171
151 152
152 153
152 173
153 154
153 161
153 174
154 155
154 175
155 156
155 176
156 157
156 177
157 158
157 178
158 159
158 179
159 160
159 180
160 161
160 181
161 162
161 182
162 163
162 183
163 164
163 184
164 165
164 185
165 166
165 186
166 167
166 187
167 188
168 169
168 189
169 170
170 171
170 191
171 172
171 192
172 173
172 193
173 174
174 175
174 195
175 176
175 196
176 177
176 197
177 178
177 198
178 179
178 199
179 180
179 200
180 181
180 201
181 182
181 202
182 183
182 203
183 184
183 204
184 185
184 205
185 186
185 206
186 187
186 207
187 208
188 209
189 190
189 210
190 191
190 211
191 192
191 212
192 193
192 213
193 194
193 214
194 195
194 215
195 196
195 216
196 197
196 217
197 198
197 218
198 199
198 219
199 200
199 220
200 201
200 221
201 202
202 203
202 223
203 204
203 224
204 205
205 206
206 207
207 208
208 209
210 211
211 212
212 213
213 214
215 216
217 218
218 219
219 220
220 221
221 222
222 223
223 224
