225 397
2 22
1 23
4 24
3 5 25
4 6 26 145
5 7 27
6 8 28
7 9 29
8 10 30
9 11 31
10 12 32
11 13 33
12 14 34
13 15 35
14 16 36
15 17 37
16 18
17 19 39
18 20 40
19 21 41
20 42
1 23 43
2 22 24 44
3 23 25 45
4 24 26 46
5 25 27 47
6 26 28 48
7 27 29 49
8 28 50
9 31
10 30 32 52
11 31 33 53
12 32 34 54
13 33 35 55
14 34 36 56
15 35 37 57
16 36 38 58
37 39 59
18 38 40 60
19 39 41 61
20 40 42
21 41 63
22 44 64
23 43 45 65
24 44 46 66
25 45 47 67
26 46 48 68
27 47 49 69
28 48 50 70
29 49 51 71
50 52 72
31 51 53 73
32 52 54 74
33 53 55 75
34 54 56 76
35 55 57 77
36 56 58 78
37 57 59 79
38 58 60 80
39 59 61 81
40 60 82
63 83
42 62 84
43 65 85
44 64 66 86
45 65 67
46 66 68
47 67 69 89
48 68 70 90
49 69 71 91
50 70 72 92
51 71 93
52 74 94
53 73 95
54 76 96
55 75 77 97
56 76 78 98
57 77 79 99
58 78 80 100
59 79 101
60 82 102
61 81 83 103
62 82 84 104
63 83
64 86 106
65 85 87 107
86 88 108
87 89 109
68 88 90
69 89 91 111
70 90 92 112
71 91 93 113
72 92 114
73 95 115
74 94 96 116
75 95 97 117
76 96 98 118
77 97 99 119
78 98 100 120
79 99 101 121
80 100 102 122
81 101 103 123
82 102 104 124
83 103 105 125
104 126
85 107 127
86 106 108 128
87 107 109 129
88 108 110 130
109 111 131 211
90 110 112 132
91 111 113 133
92 112 114 134
93 113 115
94 114 116 136
95 115 117 137
96 116 118 138
97 117 119 139
98 118 120 140
99 119 121 141
100 120 122 142
101 121 123 143
102 122 124 144
103 123 125 145
104 124 126 146
105 125 147
106 128 148
107 127 129 149
108 128 130 150
109 129 131 151
110 130 132 152
111 131 133 153
112 132 134 154
113 133 135 155
134 136 156
115 135 137 157
116 136 158
117 139 159
118 138 140 160
119 139 141 161
120 140 142 162
121 141 143 163
122 142 144 164
123 143 145 165
5 124 144 166
125 147 167
126 146 168
127 149 169
128 148 150 170
129 149 151 171
130 150 152 172
131 151 153
132 152 154 174
133 153 155 162 175
134 154 156 176
135 155 157 177
136 156 158 178
137 157 159 179
138 158 160 180
139 159 161 181
140 160 162 182
141 154 161 163 183
142 162 164 184
143 163 165 185
144 164 166 186
145 165 167 187
146 166 168 188
147 167 189
148 170 190
149 169 171
150 170 172 192
151 171 173 193
172 174 194
153 173 175
154 174 176 196
155 175 177 197
156 176 178 198
157 177 179 199
158 178 180 200
159 179 181 201
160 180 182 202
161 181 183 203
162 182 184 204
163 183 185 205
164 184 186 206
165 185 187 207
166 186 188 208
167 187 209
168 210
169 191 211
190 192 212
171 191 193 213
172 192 194 214
173 193 195 215
194 196 216
175 195 197 217
176 196 198 218
177 197 199 219
178 198 200 220
179 199 201 221
180 200 202 222
181 201 203
182 202 204 224
183 203 205 225
184 204 206
185 205 207
186 206 208
187 207 209
188 208 210
189 209
110 190 212
191 211 213
192 212 214
193 213 215
194 214
195 217
196 216
197 219
198 218 220
199 219 221
200 220 222
201 221 223
222 224
203 223 225
204 224
