0 1
0 8
0 11
0 14
0 18
0 24
0 33
0 44
0 61
0 75
0 122
0 144
1 15
1 24
1 73
1 133
2 11
2 23
2 32
2 39
2 59
3 9
3 26
3 28
3 33
3 37
3 112
3 138
4 16
4 31
4 129
4 158
5 16
5 21
5 23
5 26
5 33
5 34
5 35
5 78
5 85
6 16
6 31
7 8
7 36
7 94
7 143
8 33
8 144
8 151
9 10
9 28
9 29
9 71
9 109
9 157
10 31
10 49
10 63
10 70
10 104
10 108
11 18
11 34
11 38
11 92
12 13
12 17
12 27
12 49
12 61
12 94
12 129
12 153
13 22
13 95
13 103
13 137
14 21
14 24
14 27
14 36
14 39
14 87
14 113
15 17
15 28
15 31
15 63
15 73
15 74
15 89
15 128
16 21
16 103
16 112
16 116
16 158
17 23
17 62
17 70
17 136
17 151
18 19
18 21
18 24
18 30
18 58
18 60
19 21
19 29
19 30
19 84
19 121
19 125
20 28
20 31
20 39
20 92
21 23
21 26
21 31
22 39
22 89
23 34
23 46
23 88
23 138
23 145
24 40
24 53
25 27
25 37
25 58
25 75
25 87
25 119
26 33
26 63
26 101
27 28
27 39
27 48
27 95
28 31
28 36
28 86
28 100
28 104
28 114
28 136
28 137
28 147
29 33
29 120
29 129
30 74
30 97
30 124
30 157
31 35
31 37
31 66
31 139
31 159
32 38
32 127
32 147
33 39
33 72
33 132
34 93
34 100
34 123
35 84
36 61
36 82
36 107
36 112
38 46
38 62
38 99
38 121
38 153
39 90
39 98
39 124
39 129
40 41
40 57
40 65
40 67
40 71
41 53
41 62
41 65
41 66
41 77
41 79
41 143
42 44
42 51
42 57
42 67
42 74
42 76
42 120
43 46
43 53
43 73
43 131
43 157
44 49
44 76
44 139
45 137
45 148
46 49
46 58
46 60
46 63
46 69
46 124
47 52
47 56
47 66
47 70
47 117
47 130
47 157
48 56
48 69
48 70
48 77
48 86
48 143
49 50
49 57
49 64
49 69
49 104
49 117
50 73
50 87
50 155
51 72
51 73
51 74
51 81
51 85
51 95
52 53
52 58
52 71
52 72
52 153
53 71
53 76
53 78
53 114
53 123
53 144
54 59
54 61
54 72
54 77
54 156
55 62
55 75
55 143
56 59
56 65
56 70
56 91
56 115
56 140
56 155
57 60
57 65
57 137
58 70
58 72
58 141
59 65
60 67
60 72
60 74
60 98
61 65
61 67
63 73
63 74
63 80
63 112
63 120
64 68
64 69
64 71
64 75
64 81
64 85
64 92
65 72
65 89
65 105
65 131
66 74
66 82
66 144
67 70
67 74
67 100
67 105
67 115
67 118
68 69
68 78
69 76
69 117
69 123
69 134
70 114
70 130
71 72
71 75
71 125
71 126
71 150
72 112
73 75
73 111
73 114
73 154
74 85
74 108
74 125
74 152
75 92
75 135
76 157
77 109
77 122
77 130
78 133
80 90
80 109
80 114
80 129
80 146
81 83
81 93
81 99
81 114
81 124
81 155
82 94
82 100
82 130
83 94
83 98
83 100
83 104
83 106
83 113
84 96
84 102
84 103
84 115
85 88
85 93
85 104
85 105
85 113
86 95
86 108
86 121
87 95
87 113
87 116
87 117
87 130
87 135
87 139
88 108
88 114
89 93
89 102
89 109
90 95
90 96
90 103
90 104
90 109
90 118
91 104
91 118
92 95
92 106
92 115
92 133
93 98
93 117
94 95
94 115
94 119
94 131
94 147
94 159
95 96
95 99
95 104
96 101
96 111
97 99
97 116
97 121
97 124
97 144
98 116
98 118
98 131
98 157
99 113
99 115
99 125
99 159
100 104
100 137
101 119
101 146
101 151
102 110
102 113
102 119
103 108
103 115
103 140
104 110
104 138
105 109
105 115
105 118
105 119
105 128
105 133
106 119
106 142
106 148
107 112
107 115
107 128
108 129
108 142
109 115
109 131
110 119
110 127
111 114
111 158
112 143
113 143
113 149
113 153
115 147
116 131
116 152
117 118
117 149
119 124
119 134
119 149
119 157
120 144
120 159
121 139
121 145
121 146
122 134
122 146
122 149
122 158
123 142
123 151
124 128
124 133
125 144
125 147
125 149
126 127
126 130
126 159
127 133
127 147
127 156
128 137
128 140
128 146
129 137
129 145
129 159
130 136
130 158
131 135
131 139
131 152
132 133
132 144
132 157
133 150
133 153
133 154
134 140
134 144
134 145
134 159
135 146
135 151
136 145
136 147
136 152
137 140
137 159
138 146
138 154
139 151
140 141
140 144
140 145
141 145
142 152
142 155
143 149
144 147
144 156
145 147
145 152
147 158
148 149
148 155
148 159
149 152
149 153
