160 542
2 9 12 15 19 25 34 45 62 76 123 145
1 16 25 74 134
12 24 33 40 60
10 27 29 34 38 113 139
17 32 130 159
17 22 24 27 34 35 36 79 86
17 32
9 37 95 144
1 8 34 145 152
4 11 29 30 72 110 158
10 32 50 64 71 105 109
1 3 19 35 39 93
14 18 28 50 62 95 130 154
13 23 96 104 138
1 22 25 28 37 40 88 114
2 18 29 32 64 74 75 90 129
5 6 7 22 104 113 117 159
13 16 24 63 71 137 152
1 12 20 22 25 31 59 61
19 22 30 31 85 122 126
29 32 40 93
6 15 17 19 20 24 27 32
14 40 90
3 6 18 22 35 47 89 139 146
1 2 15 19 41 54
28 38 59 76 88 120
4 6 22 34 64 102
13 15 26 29 40 49 96
4 10 16 21 28 32 37 87 101 105 115 137 138 148
10 20 34 121 130
19 20 75 98 125 158
5 7 11 16 21 22 29 36 38 67 140 160
3 39 128 148
1 4 6 9 27 30 40 73 133
6 12 24 94 101 124
6 32 85
8 15 29 62 83 108 113
4 26 32
12 33 47 63 100 122 154
3 15 21 23 28 34 91 99 125 130
25 42 58 66 68 72
41 54 63 66 67 78 80 144
45 52 58 68 75 77 121
47 54 74 132 158
1 43 50 77 140
138 149
24 39 44 50 59 61 64 70 125
53 57 67 71 118 131 158
28 57 70 71 78 87 144
11 13 45 47 51 58 65 70 105 118
50 74 88 156
43 73 74 75 82 86 96
48 54 59 72 73 154
25 42 44 53 72 77 79 115 124 145
60 62 73 78 157
63 76 144
48 49 60 66 71 92 116 141 156
41 43 50 61 66 138
19 26 47 53 71 73 142
3 55 57 66
19 47 58 68 73 75 99
1 13 37 55 66 68
18 39 42 56
11 16 27 47 74 75 81 113 121
50 69 70 72 76 82 86 93
41 42 57 58 60 62 73 90 106 132
32 42 48 75 83 145
41 43 61 62 71 75 101 106 116 119
65 70 79
47 49 50 65 69 77 118 124 135
11 18 48 49 57 59 68 115 131
10 41 53 54 65 73 76 126 127 151
34 52 53 55 59 61 66 72 113
2 16 44 51 52 64 76 112 115 155
16 31 43 52 61 64 67 68 86 109 126 153
1 26 56 65 72 74 93 136
43 45 54 70 158
42 49 55 110 123 131
6 54 69 134
42
64 91 110 115 130 147
52 65 84 94 100 115 125 156
37 67 95 101 131
82 95 99 101 105 107 114
20 36 97 103 104 116
6 52 65 75 89 94 105 106 114
29 49 96 109 122
15 26 51 96 114 117 118 131 136 140
24 86 109 115
16 23 66 94 103 110
40 81 96 97 104 105 110 119
57 105 119
12 21 65 76 96 107 116 134
35 82 86 90 99 118
8 13 83 84 96 116 120 132 148 160
14 28 52 87 88 91 93 95 97 100 105
85 91 96 102 112
31 100 117 122 125 145
40 61 84 94 117 119 132 158
39 82 96 98 114 116 126 160
29 35 68 83 84 105 138
27 97 120 147 152
85 90 111 114 120
14 17 85 91 109 116 141
11 29 50 84 86 91 92 96 101 111 139
66 68 86 110 116 119 120 129 134
84 93 120 143 149
37 113 116 129
11 75 87 89 104 130 143
10 78 81 90 91 106 116 132
103 105 120 128
74 97 115 159
4 17 37 64 73 108 144
15 84 86 88 100 103 144 150 154
29 54 71 74 81 82 89 112
57 68 85 93 95 100 104 106 108 110 148
17 88 98 99 132 153
48 50 70 88 94 119 150
68 91 92 99 106 118
26 95 102 103 106 107 111 125 135 150 158
30 43 64 145 160
20 39 87 98 140 146 147
1 78 135 147 150 159
35 54 70 143 152
31 40 47 82 98 120 129 134
20 72 75 100 145 148 150
72 128 131 160
33 111 127 134 148 157
16 106 108 125 138 141 147
5 13 30 40 81 109 138 146 160
48 71 78 83 88 127 137 159
44 66 95 99 110 117 136 140 153
34 134 145 158
2 79 93 106 125 128 133 151 154 155
70 120 123 141 145 146 160
76 88 132 147 152
18 29 131 146 148 153
14 29 46 58 101 129 130 141 160
4 24 105 147 155
32 45 88 122 132 152
57 104 129 135 138 142 145 146
59 141 146
107 109 124 153 156
8 42 49 56 113 114 150
1 9 54 67 98 121 126 133 135 141 148 157
24 122 130 135 137 141 142 148 153
81 102 122 123 129 136 139
29 33 95 116 126 128 137 145 146 159
46 107 150 156 160
114 118 120 123 126 144 149 153 154
72 134
9 18 102 124 136 140
75 117 132 137 143 146 150
13 39 53 114 134 150
74 134 139
51 57 82 143 149
55 128 145
10 31 44 48 77 99 120 133
5 17 112 123 131 148
32 95 100 121 127 130 135 138 149
