200 518
8 9 15 20 21 23 24 28 29 32 35 43 45 47 50 64 135 166
8 11 12 14 16 17 18 21 26 29 32 37 40 42 43 46 49 50 75 79 102
6 8 10 15 18 19 27 32 33 36 38 45 47 109 133 153
6 8 28 33 36 38
10 12 15 17 18 26 28 30 31 34 36 38 43 120 176
3 4 7 9 17 20 22 23 27 29 33 36 37 41 42 45 82
6 16 24 30 33 34 36 39 43 52 169
1 2 3 4 12 19 20 21 26 28 34 39 45 48 49 50 71 88 148 155 196
1 6 10 15 19 22 23 26 27 28 30 35 36 43 49 53 77 90 154 191
3 5 9 11 13 14 16 17 18 24 25 26 29 30 31 32 34 40 46 48 59 70 106
2 10 14 20 21 24 27 31 35 36 38 39 40 42 45 46 47 49 105 162 178
2 5 8 21 35 37 40 41 44 45 46
10 24 25 26 27 37 38 39 40 43 44 47 48 73 136
2 10 11 17 20 25 30 34 35 39 40 42 46 49 50 93 131 149
1 3 5 9 16 20 23 24 26 27 31 42 47 65 98 185
2 7 10 15 17 18 23 28 29 31 32 37 39 45 48 49 67 118
2 5 6 10 14 16 18 20 23 27 34 38 43 44 48 110 129 146
2 3 5 10 16 17 19 20 21 27 30 33 42 44 46 48 74 91 190
3 8 9 18 21 24 25 27 29 31 32 41 44 46 48 49 66 130
1 6 8 11 14 15 17 18 23 24 29 31 43 47 117 170 193
1 2 8 11 12 18 19 22 23 24 26 30 32 34 41 43 44 45 49 50 111 158 181
6 9 21 25 29 33 35 36 43 44 47 57 99 180
1 6 9 15 16 17 20 21 24 26 28 30 33 34 35 47 50 100 175
1 7 10 11 13 15 19 20 21 23 28 29 32 33 34 36 38 47 50 56 164 165
10 13 14 19 22 29 30 31 40 48 194
2 5 8 9 10 13 15 21 23 27 28 36 41 46 47 48
3 6 9 11 13 15 17 18 19 26 29 31 35 38 40 42 44 49 50 159
1 4 5 8 9 16 23 24 26 32 40 43 50 62 144 157
1 2 6 10 16 19 20 22 24 25 27 35 36 39 40 42 43 48 50 94 195
5 7 9 10 14 18 21 23 25 33 39 40 42 58
5 10 11 15 16 19 20 25 27 34 37 46 47
1 2 3 10 16 19 21 24 28 33 34 35 36 37 39 42 43 44 50 68 76 85 177 197
3 4 6 7 18 22 23 24 30 32 35 39 40 41 42 43 44 47 50
5 7 8 10 14 17 21 23 24 31 32 39 41 42 55 104 114 119 179
1 9 11 12 14 22 23 27 29 32 33 36 39 41 43 45 50 107 122 145 156
3 4 5 6 7 9 11 22 24 26 29 32 35 40 42 45 49 147 168
2 6 12 13 16 31 32 39 43 47 128 134 198
3 4 5 11 13 17 24 27 41 42 46 49 80
7 8 11 13 14 16 29 30 32 33 34 35 37 43 69 86 96 171
2 10 11 12 13 14 25 27 28 29 30 33 36 41 42 43 54 72 81 92 183
6 12 19 21 26 33 34 35 38 40 45 160 188
2 6 11 14 15 18 27 29 30 32 33 34 36 38 40 45 48 49 61 101 108 113 137 172
1 2 5 7 9 13 17 20 21 22 28 29 32 33 35 37 39 40 63 125 200
12 13 17 18 19 21 22 27 32 33 49 50
1 3 6 8 11 12 16 21 35 36 41 42 49 50 51 89 115 182
2 10 11 12 14 18 19 26 31 38 49 83 84
1 3 11 13 15 20 22 23 24 26 31 33 37 78 87
8 10 13 16 17 18 19 25 26 29 42 50 95 112 132 140 174
2 8 9 11 14 16 19 21 27 36 38 42 44 45 46 141
1 2 8 14 21 23 24 27 28 29 32 33 35 44 45 48 60 97 123 150
45
7
9
40
34
24
22 151
30
10
50
42
28
43
1
15 138
19 163
16
32
39 189
10 184
8
40
13
18 187
2 126
32 143
9
47
2
38
40
6
46 127
46
32
39 167
47 173
8
45
9
18 139
40
14
29
48
39
50
15
22 116
23 103
42
2
100
34 121
11
10
35
42
3
17
21
48
42
34
45
99 161
20
16
34
5 124
104
35
50
120
43
75
83 142 152
37
17
19
14
48
3
37
1
13
42
65
91
48
49
127
76
28
35
17
36
8 186
14
50
57
127 199
3
9
8
35
28
21
27
41
116
11
66
24
24
1
86
36
7
20
39
42
87
48
23
5
32
11
34
22
21
45
40
70
15
148 192
74
41
69
18
9
186
20
25
29
8
32
37
152
43
