0 7
0 8
0 14
0 19
0 20
0 22
0 23
0 27
0 28
0 31
0 34
0 42
0 44
0 46
0 49
0 63
0 134
0 165
1 7
1 10
1 11
1 13
1 15
1 16
1 17
1 20
1 25
1 28
1 31
1 36
1 39
1 41
1 42
1 45
1 48
1 49
1 74
1 78
1 101
2 5
2 7
2 9
2 14
2 17
2 18
2 26
2 31
2 32
2 35
2 37
2 44
2 46
2 108
2 132
2 152
3 5
3 7
3 27
3 32
3 35
3 37
4 9
4 11
4 14
4 16
4 17
4 25
4 27
4 29
4 30
4 33
4 35
4 37
4 42
4 119
4 175
5 6
5 8
5 16
5 19
5 21
5 22
5 26
5 28
5 32
5 35
5 36
5 40
5 41
5 44
5 81
6 15
6 23
6 29
6 32
6 33
6 35
6 38
6 42
6 51
6 168
7 11
7 18
7 19
7 20
7 25
7 27
7 33
7 38
7 44
7 47
7 48
7 49
7 70
7 87
7 147
7 154
7 195
8 9
8 14
8 18
8 21
8 22
8 25
8 26
8 27
8 29
8 34
8 35
8 42
8 48
8 52
8 76
8 89
8 153
8 190
9 10
9 12
9 13
9 15
9 16
9 17
9 23
9 24
9 25
9 28
9 29
9 30
9 31
9 33
9 39
9 45
9 47
9 58
9 69
9 105
10 13
10 19
10 20
10 23
10 26
10 30
10 34
10 35
10 37
10 38
10 39
10 41
10 44
10 45
10 46
10 48
10 104
10 161
10 177
11 20
11 34
11 36
11 39
11 40
11 43
11 44
11 45
12 23
12 24
12 25
12 26
12 36
12 37
12 38
12 39
12 42
12 43
12 46
12 47
12 72
12 135
13 16
13 19
13 24
13 29
13 33
13 34
13 38
13 39
13 41
13 45
13 48
13 49
13 92
13 130
13 148
14 15
14 19
14 22
14 23
14 25
14 26
14 30
14 41
14 46
14 64
14 97
14 184
15 16
15 17
15 22
15 27
15 28
15 30
15 31
15 36
15 38
15 44
15 47
15 48
15 66
15 117
16 17
16 19
16 22
16 26
16 33
16 37
16 42
16 43
16 47
16 109
16 128
16 145
17 18
17 19
17 20
17 26
17 29
17 32
17 41
17 43
17 45
17 47
17 73
17 90
17 189
18 20
18 23
18 24
18 26
18 28
18 30
18 31
18 40
18 43
18 45
18 47
18 48
18 65
18 129
19 22
19 23
19 28
19 30
19 42
19 46
19 116
19 169
19 192
20 21
20 22
20 23
20 25
20 29
20 31
20 33
20 40
20 42
20 43
20 44
20 48
20 49
20 110
20 157
20 180
21 24
21 28
21 32
21 34
21 35
21 42
21 43
21 46
21 56
21 98
21 179
22 23
22 25
22 27
22 29
22 32
22 33
22 34
22 46
22 49
22 99
22 174
23 27
23 28
23 31
23 32
23 33
23 35
23 37
23 46
23 49
23 55
23 163
23 164
24 28
24 29
24 30
24 39
24 47
24 193
25 26
25 27
25 35
25 40
25 45
25 46
25 47
26 28
26 30
26 34
26 37
26 39
26 41
26 43
26 48
26 49
26 158
27 31
27 39
27 42
27 49
27 61
27 143
27 156
28 34
28 35
28 38
28 39
28 41
28 42
28 47
28 49
28 93
28 194
29 32
29 38
29 39
29 41
29 57
30 33
30 36
30 45
30 46
31 32
31 33
31 34
31 35
31 36
31 38
31 41
31 42
31 43
31 49
31 67
31 75
31 84
31 176
31 196
32 34
32 38
32 39
32 40
32 41
32 42
32 43
32 46
32 49
33 38
33 40
33 41
33 54
33 103
33 113
33 118
33 178
34 35
34 38
34 40
34 42
34 44
34 49
34 106
34 121
34 144
34 155
35 39
35 41
35 44
35 48
35 146
35 167
36 38
36 42
36 46
36 127
36 133
36 197
37 40
37 41
37 45
37 48
37 79
38 42
38 68
38 85
38 95
38 170
39 40
39 41
39 42
39 53
39 71
39 80
39 91
39 182
40 44
40 159
40 187
41 44
41 47
41 48
41 60
41 100
41 107
41 112
41 136
41 171
42 62
42 124
42 199
43 48
43 49
44 48
44 49
44 50
44 88
44 114
44 181
45 48
45 82
45 83
46 77
46 86
47 49
47 94
47 111
47 131
47 139
47 173
48 140
49 59
49 96
49 122
49 149
56 150
64 137
65 162
68 188
69 183
73 186
74 125
75 142
82 126
85 166
86 172
90 138
98 115
99 102
103 120
115 160
119 123
126 141
126 151
147 185
151 198
185 191
