180 869
4 9 19 22 95
11 16 66 77 122
9 10 12 14 16 18 19 75
1 7 9 11 12 13 16 22 70 162
8 15 18
11 19 22 131
4 8 13 14 18 55 62
5 7 11 16 37 45
1 3 4 14 15 19 22
3 15 16 20 21 36 37 48
2 4 6 8 14 22 47
3 4 21 101
4 7 14 17 21 34 102 157
3 7 9 11 13
5 9 10 20
2 3 4 8 10 19
13 43 149
3 5 7 21 120
1 3 6 9 16 20 90 103
10 15 19
10 12 13 18 81 159
1 4 6 9 11
29 30 31 36 39 41 42 43 77
37 38 135
29 30 33 43 48 49 63 125
27 28 32 33 37 39 65 84
26 28 39 44 48 63
26 27 31 33 35 36 45
23 25 40 42 46
23 25 39 41 42 49
23 28 43 49
26 44 45
25 26 28 35 37 47 53 158
13 39 40 48 49 70
28 33 40 42 160
10 23 28 41 49
8 10 24 26 33 41 43 44 49 111 170
24 41 43 51 113
23 26 27 30 34 42 46 49
29 34 35 41 42 46 140
23 30 36 37 38 40 43 45 48 88
23 29 30 35 39 40 48
17 23 25 31 37 38 41 134
27 32 37 48 68 74
8 28 32 41 49 126
29 39 40
11 33 59
10 25 27 34 41 42 44 61 85 89 99 163 178
25 30 31 34 36 37 39 45
53 57 58 60 70 72 75 80 94 161
38 56 58 71 73 74 75 76 78 82 170
53 55 56 58 62 64 69 81
33 50 52 55 56 60 61 63 78 79 81 127
61 64 66 68 76 78 79 80 84 162
7 52 53 59 61 62 64 65 71 74 80
51 52 53 74
50 58 59 64 70 74 75 78 161
50 51 52 57 65 71 80
47 55 57 67 71 73 74 77 128 132
50 53 63 65 70 73 74 75 76
48 53 54 55 62 63 65 66 77 78
7 52 55 61 66 70 75 76 79 81 83
25 27 53 60 61 71 74 78 81 169
52 54 55 57 66 67 76 80
26 55 58 60 61 67 68 71 72 82 137
2 54 61 62 64 74
59 64 65 76 77 81 83 120
44 54 65 73 80 82
52 73 75 157
4 34 50 57 60 62 75 76 81 145
51 55 58 59 63 65 73 74 80 108
50 65 78 83 154
51 59 60 68 69 71 78 80 82 95
44 51 55 56 57 59 60 63 66 71 75 77 79 108
3 50 51 57 60 62 69 70 74 81
51 54 60 62 64 67 70 78 81 149
2 23 59 61 67 74 79
51 53 54 57 61 63 72 73 76 80
53 54 62 74 77
50 54 55 58 64 68 71 73 78 81 119 135 168
21 52 53 62 63 67 70 75 76 80 156 158
51 65 68 73 86 122
62 67 72
26 54 85 94 97 105 108 114 120 122
48 84 92 93 94 95 96 101 102 106 113 123 125
82 96 105 108 124
97 101 102 104 109 115
41 96 98 103 105 113 114 115 118 120 121 124
48 93 99 103 107 116 122 124 125 162
19 92 93 94 99 100 108 112 115 119 121 124 176
92 105 115 117 124 134 143
85 90 91 97 98 99 100 106 108 110 115 118 121
85 89 90 100 101 104 109 111 113 116 123 124
50 84 85 90 96 97 110 114 119
1 73 85 103 107 109 115 117 123 124
85 86 88 94 98 101 106 112 115 116 118 121
84 87 92 94 98
88 92 96 97 99 101 103 109 112 113 117 120 122 124 125
48 89 90 92 98 101 103 107 110
90 92 93 113 117 118 126
12 85 87 93 96 98 99 102 103 106 108 109 112 113 117 122
13 85 87 101 103 107 110 114 120 122
19 88 89 95 98 99 101 102 104 106 107 113 114 120 125 142 148
87 93 103 110 112 113 114 118 123 156
84 86 88 91 107 108 109 112 114 115 120
85 92 96 101 103 107 118 120 122 124
89 95 99 102 103 105 106 109 111 115 116 118 120 131
71 74 84 86 90 92 101 105
87 93 95 98 101 105 107 110 123 125 174
92 94 99 102 104 109 114 119 122 123 126 168
37 93 107 113 116 126
90 96 98 101 104 105 114 120 122
38 85 88 93 98 100 101 103 104 111 115 117 125
84 88 94 102 103 104 105 110 112 116 117 125 126 150
87 88 90 91 92 95 96 105 107 113 124
89 93 96 107 111 114
91 95 98 100 101 113 114 122 124 126 146
88 92 96 100 104 106 107
80 90 94 110 120 126
18 67 84 88 98 102 103 105 106 107 112 119
88 90 92 96 126
2 82 84 89 98 101 102 106 110 112 117
85 93 95 104 109 110 131 177
86 88 89 90 91 93 95 98 106 115 117
25 85 89 98 103 109 113 114
45 100 110 111 114 117 119 121
53 143 145 146 147 149 152 154 158 164 167 176
59 129 130 132 140 141 143 146 154 165 172 178 179
128 131 135 142 147 150 152 167 169 171 175 177
128 139 145 147 150 153 157 160 162 163 166 174 179
6 107 123 129 133 138 139 141 147 148 156 163 166 168 169 176 178 180
59 128 133 138 143 144 146 161 162 164 168 169 172 176 179 180
131 132 138 142 149 150 151 152 155 157 159 179
43 91 138 139 148 153 158 159 160 165 170 172 173
24 80 129 136 141 142 145 149 153 162 166 170 175 176 177
135 137 152 153 159 160 162 164 166 169 177
65 136 138 146 152 155 165 170 172 176
131 132 133 134 137 145 153 156 168 169 171 174
130 131 134 148 152 159 164 165 166 172 174 176
40 128 150 153 155 159 165 172 179
128 131 135 146 160 161 163 170 173 174
103 129 133 135 146 150 158 167 168
91 127 128 132 147 149 154 155 158 163 166 167 169 171 177
132 149 150 161 165 174 176
70 127 130 135 138 147 157 158 159 161 162 170 173 174 176 177 179
117 127 128 132 137 141 142 148 153 159 166 169 172 176
127 129 130 131 143 145 159 163 166 169
103 131 134 139 146 150 153 174
17 76 127 133 135 143 144 152 157 164 169 173 174 175 176 178
114 129 130 133 140 142 144 148 154 156 159 162 170 179
133 153 159 161 167 169 179 180
127 129 133 136 137 139 149 155 156 157 164 168 171 173
130 134 135 136 138 140 146 148 151 160 162 164 166 168 174 178
72 127 128 143 150 157 158 167 170 171 172 176
133 137 140 143 152 156 158 170 173 177 180
81 104 131 138 150 152 155 163 165 166 170 172 174
13 69 130 133 145 149 152 154 159 160 161 162 167 169 171
33 81 127 134 142 143 145 154 155 170 180
21 133 134 136 139 140 145 146 147 150 151 157 161 163 164 167 171 177 178
35 130 134 136 141 153 157 161 162 165 166 170 173 177 178 179
50 57 132 141 144 145 151 157 159 160 164 166 167 170
4 54 89 130 132 135 136 145 150 153 157 160 170 171 172 175 176
48 130 131 141 143 147 156 159 164 175
127 132 136 139 149 152 153 159 161 163 165 166 167 172 173 174 175 177
128 134 137 139 140 144 156 160 164 170 171 176 179
130 131 135 136 139 143 146 147 153 156 160 161 164 168 169 171 173 175 176
127 129 142 143 151 154 157 159 161 164 168 170
80 110 131 132 138 142 152 153 166 167 172
63 129 131 132 136 138 143 146 147 149 151 157 166 174 179
37 51 134 135 137 141 145 150 154 155 156 158 160 161 162 165 167 171
129 138 143 152 154 157 159 162 165 166 170 172 176
128 132 134 137 139 140 146 154 156 162 164 168 171 178
134 141 145 149 152 155 160 164 166 176
109 130 138 139 141 144 145 148 149 153 156 164 169 179
129 135 149 162 163 164 166 177 179 180
90 127 131 132 135 137 139 144 145 146 149 154 162 165 166 171 173 178
123 129 135 136 143 145 155 159 160 164 175
48 128 131 149 153 159 160 172 176
128 130 132 133 140 145 150 151 160 165 169 174 175 180
131 132 151 155 158 175 179
