0 3
0 8
0 18
0 21
0 94
1 10
1 15
1 65
1 76
1 121
2 8
2 9
2 11
2 13
2 15
2 17
2 18
2 74
3 6
3 8
3 10
3 11
3 12
3 15
3 21
3 69
3 161
4 7
4 14
4 17
5 10
5 18
5 21
5 130
6 7
6 12
6 13
6 17
6 54
6 61
7 10
7 15
7 36
7 44
8 13
8 14
8 18
8 21
9 14
9 15
9 19
9 20
9 35
9 36
9 47
10 13
10 21
10 46
11 20
11 100
12 13
12 16
12 20
12 33
12 101
12 156
14 19
15 18
16 42
16 148
17 20
17 119
18 19
18 89
18 102
20 80
20 158
22 28
22 29
22 30
22 35
22 38
22 40
22 41
22 42
22 76
23 36
23 37
23 134
24 28
24 29
24 32
24 42
24 47
24 48
24 62
24 124
25 26
25 27
25 31
25 32
25 36
25 38
25 64
25 83
26 27
26 38
26 43
26 47
26 62
27 30
27 32
27 34
27 35
27 44
28 39
28 41
28 45
29 38
29 40
29 41
29 48
30 42
30 48
31 43
31 44
32 34
32 36
32 46
32 52
32 157
33 38
33 39
33 47
33 48
33 69
34 39
34 41
34 159
35 40
35 48
36 40
36 42
36 43
36 48
36 110
36 169
37 40
37 42
37 50
37 112
38 41
38 45
38 48
39 40
39 41
39 45
39 139
40 42
40 44
40 47
40 87
41 47
42 133
43 47
43 67
43 73
44 48
44 125
46 58
47 60
47 84
47 88
47 98
47 162
47 177
49 52
49 56
49 57
49 59
49 69
49 71
49 74
49 79
49 93
49 160
50 55
50 57
50 70
50 72
50 73
50 74
50 75
50 77
50 81
50 169
51 52
51 54
51 55
51 57
51 61
51 63
51 68
51 80
52 54
52 55
52 59
52 60
52 62
52 77
52 78
52 80
52 126
53 60
53 63
53 65
53 67
53 75
53 77
53 78
53 79
53 83
53 161
54 58
54 60
54 61
54 63
54 64
54 70
54 73
54 79
55 73
56 57
56 58
56 63
56 69
56 73
56 74
56 77
56 160
57 64
57 70
57 79
58 66
58 70
58 72
58 73
58 76
58 127
58 131
59 62
59 64
59 69
59 72
59 73
59 74
59 75
60 61
60 62
60 64
60 65
60 76
60 77
61 65
61 69
61 74
61 75
61 78
61 80
61 82
62 70
62 73
62 77
62 80
62 168
63 65
63 66
63 75
63 79
64 66
64 67
64 70
64 71
64 81
64 136
65 73
66 75
66 76
66 80
66 82
66 119
67 72
67 79
67 81
68 72
68 74
68 156
69 74
69 75
69 80
69 144
70 72
70 73
70 79
70 107
71 77
71 82
71 153
72 77
72 79
72 81
72 94
73 74
73 76
73 78
73 107
74 80
75 77
75 80
75 148
76 78
77 79
79 80
79 118
79 134
79 167
80 155
80 157
81 85
81 121
83 84
83 93
83 96
83 104
83 107
83 113
83 119
83 121
84 91
84 92
84 93
84 94
84 95
84 100
84 101
84 105
84 112
84 122
84 124
85 95
85 104
85 107
85 123
86 96
86 100
86 101
86 103
86 108
86 114
87 95
87 97
87 102
87 104
87 112
87 113
87 114
87 117
87 119
87 120
87 123
88 92
88 98
88 102
88 106
88 115
88 121
88 123
88 124
88 161
89 91
89 92
89 93
89 98
89 99
89 107
89 111
89 114
89 118
89 120
89 123
89 175
90 91
90 104
90 114
90 116
90 123
90 133
90 142
91 96
91 97
91 98
91 99
91 105
91 107
91 109
91 114
91 117
91 120
92 99
92 100
92 103
92 108
92 110
92 112
92 115
92 122
92 123
93 95
93 96
93 109
93 113
93 118
94 102
94 106
94 108
94 114
94 116
94 122
94 123
95 97
95 100
95 105
95 111
95 114
95 115
95 117
95 120
96 97
97 98
97 100
97 102
97 108
97 111
97 112
97 116
97 119
97 121
97 123
97 124
98 100
98 102
98 106
98 109
99 112
99 116
99 117
99 125
100 101
100 102
100 105
100 107
100 108
100 111
100 112
100 116
100 121
101 102
101 106
101 109
101 113
101 119
101 121
102 103
102 105
102 106
102 112
102 113
102 119
102 124
102 141
102 147
103 109
103 111
103 112
103 113
103 117
103 122
103 155
104 106
104 107
104 108
104 111
104 113
104 114
104 119
105 106
105 117
105 119
105 121
105 123
106 108
106 110
106 114
106 115
106 117
106 119
106 130
108 109
108 122
108 124
108 173
109 113
109 118
109 121
109 122
109 125
109 167
110 112
110 115
110 125
111 113
111 119
111 121
112 114
112 116
112 124
113 115
113 116
113 124
113 125
113 149
114 123
116 121
116 123
116 125
116 145
118 119
118 125
120 125
122 130
122 176
126 142
126 144
126 145
126 146
126 148
126 151
126 153
126 157
126 163
126 166
126 175
127 128
127 129
127 131
127 139
127 140
127 142
127 145
127 153
127 164
127 171
127 177
127 178
128 130
128 134
128 141
128 146
128 149
128 151
128 166
128 168
128 170
128 174
128 176
129 138
129 144
129 146
129 149
129 152
129 156
129 159
129 161
129 162
129 165
129 173
129 178
130 132
130 137
130 138
130 140
130 146
130 147
130 155
130 162
130 165
130 167
130 168
130 175
130 177
130 179
131 132
131 137
131 142
131 143
131 145
131 160
131 161
131 163
131 167
131 168
131 171
131 175
131 178
131 179
132 137
132 141
132 148
132 149
132 150
132 151
132 154
132 156
132 158
132 178
133 137
133 138
133 147
133 152
133 157
133 158
133 159
133 164
133 169
133 171
133 172
134 135
134 140
134 141
134 144
134 148
134 152
134 161
134 165
134 169
134 174
134 175
134 176
135 136
135 151
135 152
135 158
135 159
135 161
135 163
135 165
135 168
135 176
136 137
136 145
136 151
136 154
136 164
136 169
136 171
136 175
137 144
137 152
137 155
137 167
137 168
137 170
137 173
138 147
138 151
138 158
138 163
138 164
138 165
138 171
138 173
138 175
139 149
139 152
139 154
139 158
139 164
139 171
139 178
140 145
140 159
140 160
140 162
140 169
140 172
140 173
141 145
141 149
141 157
141 166
141 167
142 146
142 148
142 153
142 154
142 157
142 162
142 165
142 166
142 168
142 170
142 176
143 148
143 149
143 160
143 164
143 173
143 175
144 146
144 156
144 157
144 158
144 160
144 161
144 169
144 172
144 173
144 175
144 176
144 178
145 147
145 152
145 158
145 165
145 168
145 171
145 175
146 158
146 162
146 165
146 168
147 149
147 152
147 173
148 151
148 156
148 163
148 168
148 172
148 173
148 174
148 175
148 177
149 153
149 155
149 158
149 161
149 169
149 178
150 152
150 158
150 160
150 166
150 168
150 178
150 179
151 154
151 155
151 156
151 163
151 167
151 170
151 172
152 159
152 161
152 163
152 165
152 167
152 173
152 177
153 156
153 157
153 166
153 169
153 170
153 171
153 175
154 155
154 157
154 169
154 172
154 176
154 179
155 162
155 164
155 165
155 169
155 171
155 173
156 158
156 159
156 160
156 161
156 166
156 168
156 170
157 169
157 179
158 160
158 162
158 163
158 166
158 170
158 176
158 177
159 160
159 161
159 164
159 165
159 169
159 172
159 176
159 177
159 178
160 163
160 165
160 166
160 169
161 169
161 170
161 171
161 174
161 175
162 163
162 174
163 164
163 165
163 166
163 171
163 172
163 173
163 174
163 176
164 169
164 170
164 175
164 178
165 167
165 168
165 170
165 172
165 174
165 175
166 167
166 169
167 171
168 173
168 178
169 170
170 171
170 175
171 177
172 175
173 178
174 176
174 178
174 179
175 177
178 179
