0 13
0 25
0 29
0 38
0 102
0 131
0 136
0 137
0 138
0 155
1 11
1 15
1 56
2 10
2 22
2 57
3 4
3 16
3 17
3 117
3 133
3 134
4 12
4 20
4 25
4 54
4 87
4 108
5 11
5 13
5 17
5 23
5 35
5 38
5 48
5 76
5 121
6 16
6 34
6 38
6 42
6 72
6 83
6 111
6 132
7 15
7 22
7 34
7 35
7 74
7 101
7 106
7 128
8 18
8 19
8 34
8 79
8 83
8 120
8 122
9 27
9 28
9 31
9 32
9 33
9 34
9 46
9 76
9 96
9 144
10 33
10 40
10 50
10 71
10 100
10 107
11 23
11 36
11 37
11 77
12 21
12 32
12 61
12 109
13 17
13 20
13 21
13 23
13 28
13 38
13 39
13 58
13 85
13 141
14 34
14 35
14 36
14 46
14 96
14 104
15 21
15 26
15 33
16 24
16 68
16 75
16 121
16 130
17 32
17 34
17 40
17 48
17 49
17 57
17 58
17 116
17 126
17 138
18 33
18 46
18 55
18 112
18 157
19 20
19 23
19 32
19 37
19 53
19 147
20 23
20 24
20 39
20 109
21 25
21 32
21 64
22 73
22 109
22 121
22 133
22 138
23 26
23 34
23 38
23 78
23 84
24 29
24 30
24 32
24 44
24 51
24 66
24 75
24 76
24 103
24 118
24 143
24 150
25 27
25 70
25 73
26 81
26 130
26 139
27 78
27 124
27 142
27 146
27 155
28 34
28 43
28 57
28 85
28 90
28 134
28 135
29 32
29 64
29 131
29 154
30 32
30 62
30 89
30 137
30 142
30 152
31 40
31 62
31 70
31 99
31 128
32 103
32 104
32 108
32 121
33 35
33 45
33 76
33 85
33 100
33 111
33 129
34 37
34 129
35 84
35 95
35 122
35 152
36 96
36 119
37 85
37 115
37 136
38 56
38 87
38 116
38 121
38 122
38 130
39 45
40 60
40 83
40 96
40 113
41 43
41 52
41 56
41 57
41 93
42 54
42 55
42 63
42 69
42 78
42 109
43 55
43 69
43 70
43 73
43 75
43 79
43 117
43 123
44 49
44 51
44 54
44 57
44 59
44 114
45 46
45 70
45 126
45 141
46 66
46 96
46 117
46 149
46 152
47 57
47 59
47 62
47 71
47 117
47 138
48 55
48 67
48 78
48 106
48 116
48 123
48 143
48 149
49 55
49 62
49 70
49 77
49 104
49 114
49 116
49 144
49 149
50 51
50 68
50 76
50 141
51 54
51 55
51 66
51 67
51 74
51 84
51 130
52 63
52 66
52 68
52 73
52 127
52 139
52 158
53 60
53 61
53 62
53 65
53 66
53 76
53 81
53 92
53 95
54 55
54 57
54 72
54 78
54 105
55 60
55 79
55 99
55 121
55 149
56 65
56 146
57 71
57 81
58 100
59 73
59 77
59 89
59 119
59 125
59 159
60 67
60 70
60 79
60 102
60 155
61 64
61 65
61 122
61 159
62 95
62 110
62 115
62 147
63 73
63 91
63 96
63 112
63 118
63 153
64 65
64 75
64 80
64 95
64 112
64 152
64 153
65 86
65 87
66 70
66 105
66 124
66 139
67 70
67 76
67 78
68 72
68 75
68 83
68 84
68 112
68 157
69 117
69 137
69 142
70 75
70 109
70 157
71 82
71 132
71 148
72 79
72 137
73 76
73 137
74 94
74 146
75 79
75 93
75 111
75 159
76 89
78 98
78 129
78 155
80 89
80 110
80 114
80 143
81 82
81 99
81 114
81 123
82 85
82 98
82 118
82 142
82 150
83 87
83 90
83 91
83 106
83 113
83 129
84 107
84 110
85 101
86 95
86 96
86 100
86 110
86 111
86 155
87 90
87 107
87 109
87 116
87 119
88 90
88 97
88 99
88 111
89 90
89 92
89 101
89 109
89 114
89 133
89 156
90 93
90 95
90 115
90 119
90 134
91 94
91 97
91 98
91 99
91 107
91 108
91 112
91 145
92 94
92 108
92 111
92 124
92 146
93 94
93 95
93 97
93 101
93 122
93 135
95 97
95 103
95 113
95 131
95 134
95 152
96 114
96 115
96 146
97 115
97 118
97 131
98 111
98 118
98 138
99 108
99 110
99 113
99 120
99 136
101 107
101 110
101 115
101 116
101 148
102 108
102 109
102 111
102 115
102 121
103 111
103 116
103 126
104 110
104 113
105 156
107 110
108 125
108 157
109 147
109 155
110 115
110 121
110 141
111 114
111 134
111 145
111 154
112 118
112 124
113 118
113 129
113 153
113 154
114 118
114 126
114 134
114 147
114 158
115 126
116 117
116 119
116 135
117 132
119 137
120 122
120 130
120 148
120 157
121 123
121 140
122 125
122 133
122 145
123 124
123 128
123 144
123 145
123 151
123 155
124 133
124 145
124 153
125 144
125 146
125 150
125 154
125 158
126 140
126 149
127 130
127 136
127 139
127 151
128 132
129 140
129 151
129 154
130 142
130 143
130 159
131 133
131 138
131 139
131 141
132 147
133 137
133 141
133 154
134 140
134 153
135 136
135 140
135 148
136 138
136 139
136 153
137 140
137 147
137 148
137 154
138 140
138 142
138 154
139 143
139 151
139 155
140 143
140 154
142 144
142 147
142 154
142 155
142 158
143 146
143 149
143 154
145 149
145 157
146 153
146 154
146 157
147 148
149 153
150 151
152 158
155 156
