160 608
14 26 30 39 103 132 137 138 139 156
12 16 57
11 23 58
5 17 18 118 134 135
4 13 21 26 55 88 109
12 14 18 24 36 39 49 77 122
17 35 39 43 73 84 112 133
16 23 35 36 75 102 107 129
19 20 35 80 84 121 123
28 29 32 33 34 35 47 77 97 145
3 34 41 51 72 101 108
2 6 24 37 38 78
5 22 33 62 110
1 6 18 21 22 24 29 39 40 59 86 142
35 36 37 47 97 105
2 8 22 27 34
4 7 25 69 76 122 131
4 6 14 33 35 41 49 50 58 59 117 127 139
9 34 47 56 113 158
9 21 24 33 38 54 148
5 14 20 24 25 40 110
13 14 16 26 33 65
3 8 74 110 122 134 139
6 12 14 20 21 27 35 39 79 85
17 21 30 31 33 45 52 67 76 77 104 119 144 151
1 5 22 28 71 74
16 24 82 131 140
10 26 79 125 143 147 156
10 14 35 44 58 86 91 135 136
1 25 33 65 132 155
25 33 63 90 138 143 153
10 41 63 71 100 129
10 13 18 20 22 25 30 31 104 105 109 122
10 11 16 19 36 46 77 86 101 112 130
7 8 9 10 15 18 24 29 38 130
6 8 15 34 85 96 123 153
12 15 97 120
12 20 35 86 116 137
1 6 7 14 24 57 88 117 122 123 131
14 21 46
11 18 32 61 84 97 114
44 53 57 58 94
7 55 56 64 70 79 110
29 42 56 70 71 74 76 80 118 124
25 50 52 55 58 60 115
34 40 47 71 127 142
10 15 19 46 67 97 118 150 153
58 60 63 72 118 139
6 18 56 68 79 107 117 124 144 150
18 45 56 63 71 78 105 115 117 145 150
11 52 69 77 142
25 45 51 55 56 67 68 75 85 131
42 64 67 69 74 128 140 159
20 61 62 63 66 67 77 82 93 96
5 43 45 52 56 58 73 79 106
19 43 44 49 50 52 55 61 80 100 122 150
2 39 42 66 147
3 18 29 42 45 48 55 72 82
14 18 101
45 48 74 78 90 120 126 160
41 54 56 68 71 80 103 156
13 54 65 66 123 160
31 32 48 50 54 96 111 116 148
43 53 74 92 97 113 119 154
22 30 62 66 76 81 96 113 153 154
54 57 62 65 87 88
25 47 52 53 54 71 106 125 140
49 52 61 71 77 79
17 51 53 73 76 84 85 113 158
43 44 118 138 143
26 32 44 46 50 61 67 68 76 110 158
11 48 58 83 133 149
7 55 69 80 138
23 26 44 53 60 64 77 138
8 52 95 147
17 25 44 65 69 71 80 94 112 160
6 10 25 34 51 54 68 74 90
12 50 60
24 28 43 49 55 68 99 130 156
9 44 56 61 73 76
65 90 111 115 144
27 54 58 83 100 115 124
72 82 86 99 119 143 151
7 9 41 69 88 91 92 107 114 130
24 36 52 69 108 111
14 29 34 38 83 102
66 96 97 101 111 112 156
5 39 66 84 91 108 110 117 120
91 98 100 112
31 60 77 81 91 93 102 110 115 134 157
29 84 88 89 90 94 96 116 120 135
64 84 95 98 99 100 108 109 113 146
54 90 95 109 112 125 147
42 76 91 95 96 98 102 123 136
75 92 93 94
36 54 63 65 87 91 94 98 104 114 132 135 153
10 15 37 41 47 64 87 115 116 147
89 92 94 96 116 119 132
79 83 92 112 119 139
32 56 82 89 92 109 111 114 121 137
11 34 59 87
8 86 90 94 108 111 116 117 149
1 61 109 110 112 116 122
25 33 96 112 117 127
15 33 50 111 114
55 67 157
8 49 84
11 85 88 92 102 111
5 33 92 93 100 103 126 158
13 21 23 43 71 88 90 103 148 156
63 81 85 87 100 102 105 108 116 122 142
7 34 76 87 89 93 99 103 104 115 135 146 155
19 64 65 69 92 119 125
41 84 96 100 105 119 130 154 155
45 50 81 82 90 97 112 119 127 135 148 159
38 63 91 97 98 102 103 111 127
18 39 49 50 88 102 104 118 120 136
4 44 47 48 70 117 133
25 64 83 98 99 113 114 115
37 60 88 91 117 138
9 100 123 131 149 158
6 17 23 33 39 56 103 111 124 141
9 36 39 62 94 121 126 134 146
44 49 82 122 125 129 145 146 152 156
28 67 93 113 124 134 146 154
60 109 123 145 147 151 155 159
18 46 104 115 116 141 150
53 131 137 140 152
8 32 124 133
34 35 79 84 114 141 152 155
17 27 39 52 121 128 143 144 160
1 30 96 98 134 139 140 142
7 72 118 129 148
4 23 90 123 125 132 138 142 155
4 29 91 96 112 115 141 154
29 94 117 137 141 149
1 38 100 128 136 139 140 154
1 31 70 73 74 120 134 141 148 149 155
1 18 23 48 99 132 137 141 143 155
27 53 67 128 132 137 144 152 156
122 127 130 135 136 138 139 144 155
14 46 51 111 132 134
28 31 70 83 131 139 145 148 155 156 159
25 49 81 131 140 141 147 150 155
10 50 124 126 143
92 112 123 124 125 150 158
28 57 75 93 97 126 144 154 155 158
20 63 110 115 133 138 143 149
72 102 121 136 138 148
47 49 50 56 127 144 146 154
25 83 126 152
124 128 130 140 151
31 36 47 65 96 159
64 65 114 125 135 137 147 150
30 112 114 126 130 134 138 139 141 143 144 147
1 28 61 79 87 110 124 140 143 157
90 106 156
19 69 71 109 121 146 147
53 115 126 143 153
60 62 76 131
