0 1
0 2
0 3
0 4
0 5
0 6
0 8
0 9
0 10
0 11
0 12
0 13
0 15
0 17
0 18
0 19
0 20
1 2
1 3
1 5
1 6
1 9
1 10
1 11
1 13
1 14
1 15
1 16
1 17
1 18
1 19
1 27
2 3
2 4
2 5
2 6
2 7
2 8
2 9
2 10
2 11
2 13
2 15
2 17
2 18
2 19
3 4
3 5
3 6
3 7
3 8
3 9
3 10
3 11
3 12
3 13
3 14
3 15
3 16
3 17
3 18
3 19
4 5
4 6
4 7
4 9
4 10
4 11
4 12
4 13
4 15
4 17
4 18
4 19
5 6
5 7
5 9
5 10
5 11
5 14
5 16
5 17
5 18
5 19
6 7
6 8
6 9
6 10
6 11
6 12
6 13
6 15
6 16
6 17
6 18
6 19
7 8
7 10
7 12
7 14
7 15
7 16
7 17
7 18
7 19
8 9
8 10
8 11
8 13
8 14
8 15
8 16
8 17
8 18
8 19
9 10
9 12
9 13
9 14
9 15
9 17
9 18
9 19
10 11
10 12
10 13
10 15
10 16
10 18
10 19
11 12
11 13
11 14
11 15
11 16
11 17
11 19
12 13
12 14
12 15
12 16
12 17
12 18
12 19
13 14
13 15
13 16
13 17
13 18
13 19
14 15
14 16
14 17
14 18
14 19
15 16
15 17
15 19
16 17
16 19
17 18
18 19
20 21
20 22
20 24
20 25
20 26
20 27
20 28
20 29
20 31
20 32
20 33
20 34
20 35
20 36
20 38
20 39
20 40
21 22
21 23
21 24
21 26
21 27
21 30
21 31
21 32
21 33
21 34
21 35
21 36
21 37
21 38
21 47
22 23
22 24
22 25
22 26
22 27
22 28
22 29
22 30
22 31
22 32
22 33
22 34
22 35
22 36
22 38
22 39
23 24
23 25
23 26
23 27
23 28
23 30
23 31
23 33
23 34
23 35
23 36
23 37
23 38
23 39
24 25
24 26
24 29
24 30
24 31
24 32
24 36
24 37
24 38
25 26
25 28
25 29
25 30
25 31
25 32
25 33
25 34
25 35
25 36
25 37
25 38
25 39
26 27
26 28
26 29
26 30
26 32
26 33
26 34
26 35
26 36
26 37
26 39
27 28
27 30
27 32
27 33
27 34
27 35
27 36
27 37
27 38
27 39
28 29
28 30
28 31
28 32
28 34
28 35
28 36
28 37
28 38
28 39
29 30
29 32
29 35
29 36
29 37
29 38
29 39
30 31
30 32
30 34
30 35
30 38
30 39
31 32
31 33
31 35
31 36
31 37
31 38
31 39
32 33
32 35
32 36
32 37
32 38
32 39
33 34
33 35
33 36
33 37
33 38
33 39
34 35
34 36
34 37
34 38
34 39
35 36
35 37
35 38
35 39
36 37
36 38
37 38
37 39
38 39
40 41
40 42
40 43
40 44
40 45
40 46
40 47
40 50
40 52
40 53
40 54
40 56
40 57
40 59
40 60
41 42
41 43
41 44
41 45
41 47
41 49
41 50
41 51
41 52
41 53
41 54
41 55
41 56
41 57
41 59
41 67
42 43
42 45
42 47
42 48
42 49
42 50
42 51
42 52
42 53
42 54
42 55
42 57
42 58
42 59
43 44
43 45
43 46
43 48
43 49
43 50
43 51
43 53
43 56
43 57
43 58
43 59
44 45
44 46
44 47
44 48
44 49
44 50
44 51
44 52
44 53
44 54
44 57
44 58
44 59
45 46
45 47
45 48
45 49
45 50
45 51
45 52
45 54
45 55
45 56
45 57
45 58
45 59
46 47
46 49
46 51
46 53
46 54
46 56
46 57
46 58
46 59
47 48
47 49
47 50
47 52
47 53
47 54
47 55
47 56
47 58
47 59
48 49
48 50
48 51
48 53
48 55
48 56
48 58
48 59
49 50
49 51
49 53
49 54
49 55
49 56
49 57
49 58
49 59
50 51
50 53
50 54
50 55
50 56
50 57
51 52
51 53
51 54
51 55
51 57
51 58
51 59
52 53
52 55
52 57
52 58
53 54
53 55
53 56
53 57
53 58
53 59
54 55
54 57
54 58
54 59
55 56
55 57
55 58
55 59
56 57
56 58
56 59
57 58
58 59
60 61
60 62
60 63
60 64
60 66
60 68
60 69
60 70
60 71
60 72
60 73
60 74
60 75
60 77
60 78
60 79
60 80
61 62
61 64
61 65
61 66
61 68
61 70
61 71
61 72
61 73
61 74
61 75
61 76
61 77
61 78
61 79
61 87
62 63
62 65
62 66
62 67
62 68
62 70
62 71
62 72
62 73
62 74
62 75
62 76
62 77
62 78
63 64
63 65
63 67
63 69
63 70
63 71
63 72
63 73
63 74
63 75
63 76
63 78
63 79
64 65
64 66
64 67
64 68
64 69
64 70
64 71
64 72
64 74
64 75
64 76
64 77
64 78
64 79
65 66
65 67
65 70
65 72
65 73
65 74
65 76
65 77
65 78
66 67
66 69
66 70
66 71
66 74
66 75
66 78
67 68
67 70
67 71
67 72
67 73
67 74
67 75
67 76
67 78
68 69
68 70
68 71
68 72
68 73
68 74
68 75
68 76
68 77
68 78
68 79
69 70
69 73
69 75
69 76
69 77
69 78
69 79
70 71
70 72
70 73
70 74
70 75
70 76
70 77
70 78
70 79
71 72
71 73
71 75
71 76
71 77
71 78
71 79
72 73
72 74
72 75
72 76
72 77
72 78
73 74
73 75
73 76
73 77
73 78
73 79
74 75
74 77
74 78
74 79
75 76
75 77
75 78
75 79
76 77
77 78
77 79
78 79
80 81
80 82
80 83
80 84
80 85
80 86
80 87
80 88
80 89
80 90
80 91
80 92
80 93
80 94
80 95
80 96
80 98
80 99
80 100
81 82
81 83
81 84
81 86
81 87
81 88
81 89
81 90
81 92
81 93
81 94
81 95
81 96
81 97
81 98
81 99
81 107
82 83
82 85
82 86
82 87
82 88
82 89
82 90
82 91
82 93
82 94
82 95
82 96
82 97
82 99
83 84
83 85
83 86
83 88
83 90
83 91
83 92
83 93
83 94
83 95
83 96
83 98
83 99
84 85
84 86
84 87
84 88
84 89
84 92
84 93
84 94
84 95
84 96
84 97
84 98
84 99
85 86
85 87
85 88
85 89
85 90
85 91
85 92
85 93
85 94
85 96
85 97
85 98
85 99
86 87
86 88
86 89
86 90
86 91
86 92
86 93
86 94
86 95
86 96
86 98
86 99
87 88
87 89
87 90
87 91
87 92
87 93
87 94
87 95
87 96
87 97
87 98
87 99
88 89
88 90
88 92
88 94
88 95
88 96
88 97
88 98
89 90
89 91
89 92
89 93
89 94
89 95
89 96
89 97
89 98
89 99
90 91
90 92
90 94
90 95
90 96
90 98
90 99
91 92
91 93
91 95
91 96
91 97
91 98
91 99
92 93
92 95
92 96
92 98
92 99
93 94
93 96
93 97
93 98
93 99
94 95
94 97
94 98
94 99
95 96
95 97
95 98
96 97
96 98
97 98
97 99
98 99
100 101
100 102
100 104
100 106
100 108
100 110
100 111
100 112
100 113
100 114
100 115
100 116
100 117
100 118
100 120
101 102
101 103
101 104
101 105
101 107
101 108
101 109
101 110
101 111
101 112
101 114
101 115
101 116
101 117
101 127
102 103
102 104
102 105
102 106
102 107
102 108
102 109
102 110
102 111
102 112
102 113
102 114
102 115
102 116
102 117
102 119
103 104
103 105
103 106
103 107
103 108
103 109
103 110
103 111
103 112
103 113
103 114
103 115
103 116
104 105
104 106
104 107
104 108
104 109
104 110
104 111
104 112
104 113
104 114
104 115
104 116
104 117
104 118
104 119
105 106
105 107
105 108
105 109
105 110
105 111
105 112
105 113
105 115
105 117
105 118
105 119
106 107
106 108
106 109
106 110
106 111
106 112
106 113
106 114
106 115
106 116
106 118
106 119
107 108
107 109
107 110
107 111
107 112
107 113
107 115
107 116
107 118
107 119
108 109
108 110
108 111
108 112
108 113
108 114
108 115
108 116
108 117
108 118
108 119
109 110
109 112
109 113
109 114
109 115
109 116
109 117
109 118
109 119
110 111
110 112
110 113
110 114
110 115
110 117
110 119
111 112
111 114
111 115
111 116
111 118
111 119
112 113
112 114
112 117
112 119
113 114
113 115
113 116
113 117
113 118
113 119
114 115
114 116
114 118
115 116
115 117
116 117
117 118
118 119
120 121
120 122
120 123
120 124
120 125
120 126
120 127
120 128
120 129
120 130
120 131
120 133
120 134
120 135
120 137
120 138
120 140
121 122
121 123
121 124
121 126
121 127
121 128
121 129
121 130
121 131
121 135
121 136
121 137
121 138
121 139
121 147
122 123
122 124
122 126
122 127
122 128
122 129
122 131
122 132
122 133
122 134
122 135
122 136
122 137
122 138
122 139
123 124
123 127
123 128
123 129
123 130
123 131
123 132
123 133
123 134
123 135
123 138
123 139
124 125
124 126
124 128
124 130
124 131
124 132
124 134
124 135
124 136
124 137
124 138
124 139
125 126
125 127
125 128
125 129
125 130
125 131
125 132
125 133
125 135
125 136
125 137
125 138
125 139
126 127
126 128
126 131
126 132
126 133
126 134
126 135
126 136
126 138
127 128
127 129
127 130
127 131
127 132
127 133
127 134
127 135
127 136
127 137
128 129
128 130
128 131
128 133
128 134
128 135
128 136
128 137
128 138
129 130
129 132
129 133
129 134
129 135
129 136
129 137
129 138
129 139
130 131
130 132
130 133
130 134
130 135
130 136
130 137
130 139
131 132
131 133
131 135
131 136
131 137
131 138
131 139
132 133
132 134
132 137
132 138
132 139
133 134
133 136
133 137
134 135
134 136
134 138
135 136
135 137
135 138
135 139
136 137
136 138
137 138
137 139
138 139
140 141
140 142
140 143
140 146
140 147
140 148
140 149
140 150
140 152
140 154
140 155
140 156
140 157
140 158
140 159
141 142
141 143
141 144
141 147
141 148
141 149
141 150
141 151
141 152
141 153
141 154
141 155
141 156
141 157
141 158
141 159
142 143
142 144
142 146
142 148
142 149
142 150
142 151
142 152
142 153
142 154
142 157
142 158
142 159
143 144
143 145
143 146
143 147
143 148
143 149
143 151
143 152
143 153
143 155
143 156
143 157
143 158
143 159
144 145
144 151
144 152
144 153
144 154
144 155
144 156
144 157
144 158
144 159
145 146
145 147
145 148
145 149
145 150
145 151
145 152
145 153
145 155
145 156
145 157
145 158
145 159
146 147
146 149
146 151
146 153
146 155
146 156
146 157
146 158
146 159
147 148
147 149
147 150
147 151
147 152
147 153
147 155
147 157
147 158
147 159
148 149
148 150
148 151
148 152
148 155
148 156
148 157
148 158
148 159
149 150
149 151
149 152
149 153
149 154
149 155
149 156
149 157
149 158
149 159
150 151
150 152
150 153
150 155
150 156
150 157
150 158
151 152
151 153
151 154
151 155
151 157
151 158
151 159
152 153
152 154
152 156
152 157
152 158
153 154
153 155
153 157
153 158
153 159
154 155
154 157
154 158
154 159
155 156
155 157
155 159
156 157
156 158
157 158
157 159
158 159
