0 1
0 4
0 8
0 25
0 32
0 34
0 37
0 47
0 87
0 108
0 113
0 157
0 180
0 182
0 203
0 233
0 236
0 277
1 2
1 11
1 50
1 63
1 67
1 70
1 125
1 149
1 199
1 202
1 249
1 266
1 268
1 269
1 277
2 3
2 16
2 28
2 38
2 47
2 62
2 64
2 79
2 127
2 174
2 175
2 223
2 278
3 5
3 18
3 25
3 27
3 40
3 49
3 60
3 62
3 64
3 67
3 69
3 98
3 117
3 137
3 147
3 163
4 8
4 10
4 17
4 23
4 57
4 69
4 154
4 155
4 156
4 157
4 160
4 174
4 177
4 245
4 261
5 6
5 27
5 32
5 41
5 43
5 69
5 73
5 92
5 107
5 112
5 121
5 152
5 153
5 195
6 9
6 19
6 24
6 26
6 30
6 44
6 47
6 49
6 50
6 72
6 87
6 200
6 220
6 261
6 270
6 273
6 278
7 14
7 30
7 37
7 45
7 50
7 52
7 66
7 116
7 147
7 187
7 188
7 265
7 276
8 19
8 22
8 24
8 27
8 37
8 38
8 50
8 68
8 77
8 98
8 114
8 203
8 244
8 267
9 30
9 32
9 55
9 68
9 75
9 145
9 174
9 260
9 269
10 26
10 61
10 63
10 65
10 70
10 137
10 143
10 148
10 168
10 176
10 230
11 44
11 46
11 54
11 55
11 60
11 69
11 112
11 125
11 127
11 241
11 274
12 30
12 33
12 39
12 42
12 43
12 58
12 61
12 64
12 95
12 104
12 106
12 131
12 134
12 144
12 152
12 155
12 161
12 191
12 234
12 248
12 270
13 17
13 21
13 26
13 38
13 41
13 42
13 45
13 55
13 62
13 65
13 69
13 207
13 246
14 24
14 25
14 59
14 69
14 84
14 93
14 103
14 148
14 184
14 191
14 192
14 258
15 33
15 34
15 89
15 169
15 195
15 210
16 25
16 36
16 49
16 54
16 55
16 61
16 62
16 77
16 112
17 32
17 33
17 47
17 49
17 67
17 82
17 127
17 177
17 226
17 249
17 253
18 23
18 26
18 28
18 30
18 32
18 36
18 37
18 43
18 48
18 62
18 63
18 87
18 97
18 164
18 184
18 210
19 20
19 39
19 67
19 77
19 89
19 131
20 22
20 30
20 31
20 44
20 57
20 60
20 62
20 63
20 144
20 178
20 231
21 30
21 35
21 37
21 50
21 53
21 58
21 59
21 69
21 91
21 104
21 156
22 48
22 49
22 53
22 57
22 58
22 59
22 259
23 28
23 50
23 153
23 206
23 233
24 26
24 58
24 71
24 87
24 103
24 184
24 215
25 42
25 50
25 58
25 64
25 76
25 173
25 184
25 192
25 233
25 258
26 30
26 34
26 61
26 69
26 122
26 183
27 35
27 43
27 46
27 53
27 66
27 119
27 137
27 167
27 207
27 244
27 248
27 267
27 269
28 30
28 33
28 44
28 56
28 58
28 60
28 67
28 73
28 100
28 109
28 118
28 167
28 182
28 193
28 210
28 252
29 40
29 167
29 229
29 234
29 240
29 263
29 271
30 33
30 38
30 51
30 54
30 142
30 168
30 173
30 223
30 267
30 278
31 47
31 81
31 145
31 183
31 190
32 33
32 44
32 51
32 57
32 58
32 61
32 66
32 68
32 96
32 115
32 170
32 207
32 211
32 253
33 36
33 50
33 65
33 69
33 97
33 124
33 152
33 161
33 164
34 47
34 48
34 55
34 61
34 113
34 230
34 253
35 42
35 64
35 66
35 135
35 165
35 177
35 198
36 44
36 52
36 78
36 88
36 98
36 147
36 203
36 243
36 267
37 57
37 63
37 64
37 73
37 87
37 116
37 123
37 137
37 214
37 223
37 227
37 261
38 40
38 47
38 53
38 55
38 60
38 82
38 94
38 128
38 132
38 136
38 261
39 59
39 70
39 118
39 194
39 202
39 219
39 278
40 51
40 52
40 59
40 64
40 67
40 75
40 81
40 130
40 139
40 169
40 201
40 238
40 245
40 246
40 274
40 275
40 276
41 46
41 52
41 54
41 57
41 63
41 83
41 173
41 175
41 178
41 188
41 205
41 223
42 53
42 56
42 60
42 82
42 111
42 150
42 160
43 44
43 57
43 65
43 67
43 111
43 112
43 115
43 144
43 240
43 253
43 266
43 267
43 270
44 48
44 61
44 64
44 66
44 68
44 89
44 131
44 163
44 164
44 199
44 217
44 264
45 46
45 51
45 61
45 69
45 103
45 151
45 167
45 185
45 237
45 267
45 277
46 47
46 50
46 51
46 52
46 60
46 62
46 66
46 93
46 116
47 55
47 60
47 62
47 91
47 114
47 135
47 147
47 234
48 50
48 100
48 120
48 221
49 50
49 54
49 57
49 63
49 68
49 115
49 124
49 148
49 178
49 182
49 262
49 271
50 57
50 62
50 68
50 73
50 85
50 98
50 130
50 131
50 134
50 149
50 170
50 218
50 263
51 53
51 54
51 59
51 68
51 87
51 163
51 188
51 206
51 242
51 268
52 56
52 78
52 153
52 154
52 182
52 204
52 254
52 269
52 273
52 275
53 56
53 66
53 91
53 111
53 116
53 157
53 181
53 257
53 273
54 120
54 130
54 162
54 164
54 260
55 56
55 68
55 107
55 118
55 152
55 165
55 269
56 62
56 65
56 136
56 163
56 206
56 214
56 248
57 72
57 172
57 194
57 251
58 80
58 151
58 157
58 164
58 203
58 240
58 241
58 274
58 279
59 62
59 172
59 208
59 214
59 248
59 260
60 67
60 81
60 164
60 235
60 256
60 278
61 94
61 107
61 155
61 186
61 205
61 222
61 275
62 66
62 93
62 109
62 127
62 155
62 258
63 64
63 142
63 167
63 173
63 189
63 217
63 236
63 257
63 268
64 68
64 75
64 96
64 135
64 148
64 185
64 217
64 250
64 274
64 278
65 128
65 275
65 277
65 278
66 77
66 103
66 111
66 133
66 182
66 234
67 105
67 158
67 243
67 250
67 251
67 261
68 97
68 226
68 232
69 135
69 267
70 74
70 97
70 108
70 117
70 120
70 123
70 126
70 134
70 135
70 156
70 176
70 187
70 229
70 256
70 268
70 276
71 80
71 85
71 90
71 91
71 92
71 102
71 109
71 115
71 123
71 124
71 132
71 156
71 184
71 188
71 200
72 104
72 124
72 125
72 126
72 139
72 152
72 159
72 164
72 169
72 175
72 229
72 245
72 262
73 74
73 76
73 80
73 82
73 85
73 86
73 103
73 128
73 129
73 133
73 140
73 144
73 169
73 230
73 242
73 252
73 255
74 100
74 101
74 112
74 117
74 135
74 139
74 181
74 261
75 85
75 107
75 112
75 120
75 133
75 136
75 184
75 229
76 80
76 83
76 88
76 98
76 103
76 113
76 117
76 128
76 132
76 139
76 152
76 159
76 161
76 217
76 256
76 275
77 78
77 94
77 103
77 115
77 120
77 124
77 126
77 130
77 139
77 178
77 206
77 214
77 217
78 109
78 114
78 133
78 180
78 257
78 260
78 264
78 279
79 84
79 87
79 90
79 95
79 112
79 115
79 117
79 126
79 225
79 226
79 264
80 101
80 107
80 113
80 117
80 119
80 121
80 135
80 155
80 185
80 186
80 201
80 225
80 244
80 252
80 278
81 85
81 87
81 90
81 91
81 99
81 103
81 104
81 106
81 108
81 110
81 115
81 151
81 189
81 240
81 258
82 88
82 134
82 135
82 170
82 217
83 90
83 112
83 113
83 115
83 128
83 146
83 149
83 187
83 199
83 206
83 236
83 248
83 255
83 256
83 271
84 92
84 110
84 138
84 148
84 197
84 233
84 271
85 89
85 100
85 102
85 104
85 118
85 121
85 169
86 87
86 93
86 94
86 103
86 126
86 138
86 178
86 186
86 212
86 228
86 240
86 267
87 89
87 93
87 99
87 104
87 109
87 120
87 123
87 129
87 133
87 173
87 187
87 194
87 212
87 240
88 91
88 92
88 114
88 116
88 118
88 122
88 137
88 139
88 193
88 195
88 270
88 272
89 99
89 100
89 105
89 106
89 112
89 118
89 121
89 125
89 129
89 130
89 155
89 168
89 182
89 252
90 94
90 96
90 113
90 115
90 116
90 129
90 131
90 138
90 181
90 202
90 223
90 249
90 264
91 92
91 98
91 99
91 110
91 112
91 115
91 122
91 126
91 141
91 149
91 150
91 167
91 190
91 220
91 243
91 245
92 106
92 110
92 111
92 112
92 138
92 157
92 207
92 241
93 102
93 111
93 116
93 121
93 122
93 132
93 136
93 155
93 189
93 199
93 202
94 104
94 107
94 121
94 128
94 131
94 132
94 135
94 211
94 271
94 272
95 96
95 97
95 102
95 117
95 123
95 135
95 147
95 203
95 267
96 101
96 103
96 104
96 110
96 113
96 118
96 121
96 128
96 131
96 132
96 138
96 270
97 98
97 137
97 161
97 188
97 190
97 214
97 269
98 103
98 118
98 122
98 124
98 126
98 128
98 133
98 200
98 228
98 233
98 263
98 279
99 106
99 117
100 102
100 114
100 122
100 123
100 125
100 159
100 196
101 102
101 105
101 118
101 122
101 127
101 264
101 268
101 271
101 272
102 105
102 109
102 122
102 127
102 136
102 159
102 193
102 204
102 245
102 253
103 111
103 118
103 120
103 128
103 132
103 136
103 139
103 154
103 172
103 215
103 256
104 110
104 123
104 124
104 150
104 165
104 168
104 174
104 176
104 197
104 206
104 222
104 237
105 107
105 108
105 118
105 133
105 135
105 162
105 167
105 189
105 200
106 114
106 118
106 129
106 134
106 136
106 163
106 168
106 169
106 208
106 255
106 257
106 262
107 108
107 116
107 119
107 131
107 133
107 193
107 236
107 259
107 275
108 137
108 173
108 177
108 196
108 197
108 235
108 246
108 248
108 258
109 126
109 131
109 138
109 174
109 208
109 254
110 131
110 135
110 136
110 138
110 162
110 172
110 182
110 246
110 257
111 121
111 154
111 169
111 183
111 207
111 208
111 214
111 255
112 118
112 128
112 131
112 132
112 156
112 162
112 216
112 226
112 232
112 266
113 121
113 122
113 134
113 237
113 238
113 263
114 119
114 121
114 128
114 130
114 131
114 137
114 158
114 204
114 248
115 122
115 130
115 189
115 232
115 242
115 275
116 120
116 123
116 125
116 135
116 138
116 155
116 191
116 211
116 244
116 267
117 123
117 127
117 188
118 122
118 123
118 125
118 129
118 132
118 192
119 121
119 122
119 134
119 160
119 195
119 211
119 216
119 262
120 127
120 130
120 136
120 147
120 165
120 249
121 125
121 128
121 132
121 136
121 244
121 245
121 253
121 254
122 151
122 160
122 167
122 195
122 258
123 133
123 148
123 211
123 223
123 241
123 244
123 254
123 276
124 155
124 188
124 223
124 236
124 268
124 269
124 273
125 128
125 148
125 157
125 162
125 187
125 200
125 210
125 228
125 231
126 131
126 135
126 136
126 146
126 183
126 194
126 244
127 139
127 161
127 184
127 201
127 272
128 135
128 148
128 178
128 196
128 205
128 233
128 251
129 154
129 233
130 138
130 185
130 190
130 216
130 234
130 241
130 252
131 136
131 140
131 165
131 207
131 213
131 271
132 135
132 139
132 186
132 191
132 218
132 235
132 254
132 263
132 275
133 140
133 187
133 198
133 250
134 149
134 162
134 175
134 196
134 216
135 204
135 250
135 254
136 161
136 198
136 224
136 225
136 233
137 179
137 180
137 190
137 233
137 252
137 265
138 171
138 193
138 266
139 162
139 190
139 207
139 270
139 272
140 178
140 180
140 196
140 197
140 199
140 200
140 205
140 208
140 212
140 214
141 146
141 148
141 157
141 159
141 174
141 210
141 213
141 229
142 152
142 153
142 182
142 193
142 205
143 167
143 174
143 175
143 182
143 202
143 264
144 154
144 164
144 166
144 172
144 180
144 182
144 196
144 272
145 146
145 152
145 160
145 166
145 171
145 184
145 188
145 197
145 202
145 203
145 225
146 153
146 154
146 159
146 180
146 184
146 185
146 191
146 197
146 202
146 205
146 230
146 258
146 275
147 162
147 175
147 180
147 199
147 202
147 232
147 267
148 149
148 153
148 170
148 176
148 187
148 193
148 230
148 235
148 248
149 175
149 207
149 265
150 157
150 162
150 172
150 181
150 198
150 200
151 155
151 177
151 183
151 184
151 190
151 193
151 196
151 209
151 215
152 160
152 163
152 164
152 176
152 189
152 203
152 204
152 205
153 165
153 181
153 198
153 201
153 203
153 258
154 158
154 162
154 163
154 165
154 170
154 179
154 183
154 188
154 189
154 201
154 207
154 241
154 271
155 157
155 170
155 188
155 191
155 192
155 193
155 196
155 209
155 220
155 235
155 246
155 275
156 190
156 203
156 216
156 235
157 163
157 171
157 172
157 175
157 176
157 178
157 185
157 192
157 193
157 206
157 262
157 272
157 276
158 160
158 161
158 163
158 192
158 200
158 202
158 204
158 207
158 217
158 222
158 224
158 237
158 238
159 164
159 172
159 173
159 177
159 188
159 202
159 207
159 232
159 239
160 163
160 180
160 184
160 185
160 190
160 197
160 230
160 258
161 176
161 179
161 202
161 220
161 229
162 190
162 195
162 200
162 236
162 262
163 168
163 170
163 175
163 177
163 183
163 187
163 189
163 194
163 217
163 221
163 240
164 166
164 171
164 182
164 184
164 187
164 189
164 207
164 215
164 241
164 248
164 261
165 174
165 176
165 177
165 179
165 191
165 192
165 204
165 208
165 209
165 224
165 272
166 168
166 169
166 170
166 199
166 200
166 273
167 172
167 200
167 204
167 235
167 249
168 180
168 195
168 196
168 199
168 205
168 207
168 216
168 217
168 241
168 262
168 278
169 170
169 182
169 190
169 202
169 206
169 209
169 238
169 271
169 278
170 174
170 176
170 178
170 181
170 195
171 173
171 175
171 201
171 243
171 255
171 262
171 267
172 176
172 181
172 195
172 203
172 207
172 212
172 214
172 221
172 255
172 260
173 175
173 179
173 188
173 190
173 193
173 206
173 207
173 224
173 227
173 247
174 178
174 185
174 187
174 191
174 193
174 200
174 207
174 210
174 239
175 193
175 198
175 216
175 239
175 256
175 275
176 183
176 194
176 202
177 179
177 183
177 185
177 190
177 208
177 226
177 230
178 192
178 194
178 196
178 216
178 222
178 234
178 256
178 266
178 271
179 197
179 211
179 231
179 243
180 183
180 197
180 207
180 242
181 185
181 186
181 200
181 202
181 206
181 222
182 200
182 267
183 239
184 186
184 189
184 196
184 207
185 198
185 206
185 224
185 257
186 191
186 192
186 199
186 204
186 208
186 224
186 266
187 198
187 200
187 228
187 251
188 196
188 198
188 223
188 228
188 245
189 193
189 205
189 227
189 233
190 201
190 203
190 206
190 238
190 268
191 195
191 216
191 261
192 194
192 201
192 206
192 250
192 258
193 197
193 234
193 243
193 255
194 200
194 206
194 209
194 214
194 237
194 272
194 273
195 201
195 204
195 205
195 243
195 250
195 260
196 209
196 224
196 233
196 249
196 265
197 202
197 265
197 269
198 206
198 217
198 264
199 237
199 277
200 201
200 205
200 228
201 235
201 236
202 204
202 206
202 207
202 211
203 204
204 266
205 209
205 210
205 214
205 223
205 232
206 208
206 241
206 265
207 238
208 258
210 212
210 214
210 215
210 220
210 248
210 252
210 279
211 239
211 247
211 253
211 258
211 260
211 264
211 267
211 271
211 275
212 216
212 217
212 246
212 252
212 254
212 255
212 270
212 278
213 216
213 221
213 235
213 237
213 238
213 245
213 265
213 266
213 267
213 270
213 275
213 277
213 279
214 215
214 216
214 223
214 228
214 232
214 235
214 242
214 259
214 261
214 277
215 216
215 240
215 245
215 246
215 278
216 219
216 235
216 238
216 243
216 252
216 263
216 273
217 241
217 258
217 264
218 222
218 225
218 242
218 247
218 249
218 259
218 263
218 265
219 230
219 234
219 240
219 243
219 245
219 249
219 250
219 253
219 257
220 232
220 253
220 260
220 264
220 275
221 228
221 229
221 233
221 236
221 253
221 261
221 263
221 264
221 266
221 268
222 240
222 252
222 261
222 262
222 266
223 235
223 236
223 247
223 262
223 263
223 265
223 267
223 268
223 271
224 235
224 249
224 254
224 267
224 269
224 277
224 279
225 236
225 240
225 248
225 269
226 231
226 232
226 233
226 234
226 244
226 252
226 269
227 229
227 237
227 242
227 257
227 258
227 259
227 260
227 269
227 271
227 273
228 250
228 254
228 271
228 275
228 276
228 278
229 249
229 253
229 259
229 261
229 266
229 268
229 276
230 232
230 243
230 253
230 256
230 259
230 264
230 269
230 272
230 279
231 234
231 236
231 237
231 257
231 264
231 278
232 235
232 256
232 268
232 275
232 276
233 237
233 263
234 243
234 261
234 264
234 271
235 237
235 238
235 249
235 251
235 254
235 261
235 263
235 275
236 242
236 246
236 277
237 238
237 244
237 251
237 256
237 278
238 245
238 246
238 248
238 252
238 275
239 261
239 262
239 265
239 267
239 269
239 271
239 278
240 242
240 270
240 276
241 245
241 247
241 249
241 256
241 261
241 266
242 248
242 259
242 260
242 266
242 269
242 274
243 249
243 276
244 249
244 261
244 270
244 276
245 248
245 254
245 258
245 260
245 265
245 266
245 271
245 272
245 276
246 250
246 251
246 262
246 268
246 269
246 270
246 274
247 263
248 256
248 262
248 267
248 275
249 250
249 260
250 254
250 257
250 267
250 274
250 279
251 252
251 261
251 266
252 254
252 255
252 261
252 269
252 271
252 272
253 278
254 272
255 272
256 257
256 278
257 264
257 267
257 274
257 276
257 279
258 267
258 273
258 275
259 263
260 266
260 276
261 265
261 279
263 264
263 269
264 265
264 270
264 273
264 277
265 268
265 274
265 275
265 276
266 277
267 271
267 272
268 273
270 276
270 279
271 279
273 276
275 277
275 279
