280 2044
2 5 9 26 33 35 38 48 88 109 114 158 181 183 204 234 237 278
1 3 12 51 64 68 71 126 150 200 203 250 267 269 270 278
2 4 17 29 39 48 63 65 80 128 175 176 224 279
3 6 19 26 28 41 50 61 63 65 68 70 99 118 138 148 164
1 9 11 18 24 58 70 155 156 157 158 161 175 178 246 262
4 7 28 33 42 44 70 74 93 108 113 122 153 154 196
6 10 20 25 27 31 45 48 50 51 73 88 201 221 262 271 274 279
15 31 38 46 51 53 67 117 148 188 189 266 277
1 5 20 23 25 28 38 39 51 69 78 99 115 204 245 268
7 31 33 56 69 76 146 175 261 270
5 27 62 64 66 71 138 144 149 169 177 231
2 45 47 55 56 61 70 113 126 128 242 275
31 34 40 43 44 59 62 65 96 105 107 132 135 145 153 156 162 192 235 249 271
18 22 27 39 42 43 46 56 63 66 70 208 247
8 25 26 60 70 85 94 104 149 185 192 193 259
34 35 90 170 196 211
3 26 37 50 55 56 62 63 78 113
5 14 33 34 48 50 68 83 128 178 227 250 254
4 24 27 29 31 33 37 38 44 49 63 64 88 98 165 185 211
7 9 21 40 68 78 90 132
20 23 31 32 45 58 61 63 64 145 179 232
14 31 36 38 51 54 59 60 70 92 105 157
9 21 49 50 54 58 59 60 260
5 19 29 51 154 207 234
7 9 15 27 59 72 88 104 185 216
1 4 15 17 43 51 59 65 77 174 185 193 234 259
7 11 14 19 25 31 35 62 70 123 184
4 6 9 36 44 47 54 67 120 138 168 208 245 249 268 270
3 19 24 31 34 45 57 59 61 68 74 101 110 119 168 183 194 211 253
41 168 230 235 241 264 272
7 8 10 13 19 21 22 27 29 34 39 52 55 143 169 174 224 268 279
21 48 82 146 184 191
1 6 10 18 19 34 45 52 58 59 62 67 69 97 116 171 208 212 254
13 16 18 29 31 33 37 51 66 70 98 125 153 162 165
1 16 27 48 49 56 62 114 231 254
22 28 43 65 67 136 166 178 199
17 19 34 45 53 79 89 99 148 204 244 268
1 8 9 19 22 58 64 65 74 88 117 124 138 215 224 228 262
3 9 14 31 41 48 54 56 61 83 95 129 133 137 262
13 20 60 71 119 195 203 220 279
4 30 39 52 53 60 65 68 76 82 131 140 170 202 239 246 247 275 276 277
6 14 47 53 55 58 64 84 174 176 179 189 206 224
13 14 26 36 54 57 61 83 112 151 161
6 13 19 28 45 58 66 68 112 113 116 145 241 254 267 268 271
7 12 21 29 33 37 44 49 62 65 67 69 90 132 164 165 200 218 265
8 14 47 52 62 70 104 152 168 186 238 268 278
12 28 42 46 48 51 52 53 61 63 67 94 117
1 3 7 18 32 35 39 47 56 61 63 92 115 136 148 235
19 23 35 45 51 101 121 222
4 7 17 18 23 51 55 58 64 69 116 125 149 179 183 263 272
2 7 8 9 22 24 26 34 47 49 50 58 63 69 74 86 99 131 132 135 150 171 219 264
31 33 41 46 47 54 55 60 69 88 164 189 207 243 269
8 37 41 42 47 57 79 154 155 183 205 255 270 274 276
22 23 28 39 43 52 57 67 92 112 117 158 182 258 274
12 17 31 42 50 52 121 131 163 165 261
10 12 14 17 35 39 48 57 69 108 119 153 166 270
29 43 53 54 56 63 66 137 164 207 215 249
5 21 23 33 38 42 44 50 51 73 173 195 252
13 22 23 25 26 29 33 81 152 158 165 204 241 242 275 280
15 22 23 40 41 52 63 173 209 215 249 261
4 12 21 29 39 43 47 48 68 82 165 236 257 279
11 13 17 27 33 35 45 46 95 108 156 187 206 223 276
3 4 14 17 19 21 47 48 51 57 60 67 94 110 128 156 259
2 11 19 21 38 42 50 65 143 168 174 190 218 237 258 269
3 4 13 26 36 38 41 45 64 69 76 97 136 149 186 218 251 275 279
11 14 34 44 57 129 276 278 279
8 28 33 36 45 47 54 63 78 104 112 134 183 235
2 4 18 20 29 41 44 61 106 159 244 251 252 262
9 10 33 45 50 51 52 56 65 98 227 233
4 5 6 12 14 15 22 27 34 46 136 268
2 11 40 75 98 109 118 121 124 127 135 136 157 177 188 230 257 269 277
25 81 86 91 92 93 103 110 116 124 125 133 157 185 189 201
7 58 105 125 126 127 140 153 160 165 170 176 230 246 263
6 29 38 51 75 77 81 83 86 87 104 129 130 134 141 145 170 231 243 253 256
71 74 101 102 113 118 136 140 182 262
10 41 65 86 108 113 121 134 137 185 230
26 74 81 84 89 99 104 114 118 129 133 140 153 160 162 218 257 276
9 17 20 67 79 95 104 116 121 125 127 131 140 179 207 215 218
37 53 78 110 115 134 181 258 261 265 280
3 85 88 91 96 113 116 118 127 226 227 265
59 72 74 77 102 108 114 118 120 122 136 156 186 187 202 226 245 253 279
32 41 61 86 88 91 92 100 104 105 107 109 111 116 152 190 241 259
18 39 43 74 89 135 136 171 218
42 77 91 113 114 116 129 147 150 188 200 207 237 249 256 257 272
15 80 93 111 139 149 198 234 272
51 72 74 76 82 90 101 103 105 119 122 170
74 88 94 95 104 127 139 179 187 213 229 241 268
1 7 19 25 38 52 80 82 87 90 94 100 105 110 121 124 130 134 174 188 195 213 241
37 77 83 92 93 115 117 119 123 138 140 194 196 271 273
16 20 45 86 88 100 101 106 107 113 119 122 126 130 131 156 169 183 253
72 80 82 84 95 97 114 116 117 130 132 139 182 203 224 250 265
22 48 54 72 82 89 93 99 100 111 113 116 123 127 142 150 151 168 191 221 244 246
6 72 85 89 92 107 111 112 113 139 158 208 242
15 47 63 87 88 103 112 117 122 123 133 137 156 190 200 203
39 62 78 87 91 105 108 122 129 132 133 136 212 272 273
13 80 97 98 103 118 124 136 148 204 268
33 65 91 96 102 104 105 111 114 119 122 129 132 133 139 271
19 34 69 71 96 99 138 162 189 191 215 270
4 9 37 51 77 92 98 104 119 123 125 127 129 134 201 229 234 264 280
82 88 90 92 107 118
29 49 75 86 90 103 115 123 124 126 160 197
75 81 97 103 106 119 123 128 265 269 272 273
72 86 94 96 101 102 106 110 123 128 137 160 194 205 246 254
15 25 46 67 74 77 78 82 87 97 99 112 119 121 129 133 137 140 155 173 216 257
13 22 73 82 86 88 95 97 111 124 125 151 166 169 175 177 198 207 223 238
68 90 102 103 108 109 119 134 136 163 168 190 201
13 82 90 93 100 115 119 130 135 137 164 169 170 209 256 258 263
6 56 62 76 81 95 106 109 117 120 132 134 194 237 260 276
1 71 82 106 108 138 174 178 197 198 236 247 249 259
29 63 72 79 88 103 127 132 139 175 209 255
82 85 92 93 97 105 132 136 137 139 163 173 183 247 258
43 44 54 67 93 94 104 122 155 170 184 208 209 215 256
6 12 17 44 75 76 80 84 90 92 93 119 129 132 133 157 163 217 227 233 267
1 35 77 81 84 91 97 122 123 135 238 239 264
9 48 79 89 101 107 120 122 129 131 132 138 159 205 249
33 44 50 72 78 80 82 84 91 92 123 131 190 233 243 276
8 38 47 54 89 91 94 108 121 124 126 136 139 156 192 212 245 268
4 71 75 77 80 81 96 100 124 128 189
29 40 56 86 89 90 97 99 102 104 106 107 113 123 124 126 130 133 193
28 81 108 115 122 123 135 161 196 212 217 263
49 55 71 76 78 88 104 117 128 131 137 148 166 250
6 81 86 90 94 95 97 112 114 115 120 126 129 133 137 245 246 254 255
27 89 92 94 99 101 102 103 114 116 119 120 152 161 168 196 259
38 71 72 88 96 101 105 117 118 119 134 149 212 224 242 245 255 277
34 50 72 73 78 99 105 156 189 224 237 269 270 274
2 12 73 90 101 117 119 122 129 149 158 163 188 201 211 229 232
71 73 78 80 87 92 99 110 132 136 137 147 184 195 245
3 12 18 63 102 103 118 121 140 162 185 202 273
39 66 74 77 84 95 97 99 104 113 115 122 126 136 149 179 197 206 234 252
74 88 90 91 107 119 155 234
41 51 55 78 90 115 116 121 139 186 191 217 235 242 253
13 20 45 51 91 95 97 108 110 111 113 115 127 137 141 166 208 214 272
39 72 77 94 95 97 104 113 119 122 136 140 187 192 219 236 255 264 276
67 74 76 79 88 99 106 108 124 141 188 199 251
13 51 71 83 107 114 120 150 163 176 197 217
36 48 65 70 71 75 81 83 95 96 106 111 117 127 129 133 205 251 255
39 57 76 94 103 104 107 111 121 122 127 132 162 199 225 226 234
4 11 28 38 89 98 109 115 180 181 191 234 253 266
85 87 91 93 97 110 111 117 131 172 194 267
41 73 75 77 78 89 104 128 133 163 191 208 271 273
74 132 134 179 181 197 198 200 201 206 209 213 215
92 147 149 158 160 175 211 214 230
31 64 153 154 183 194 206
11 168 175 176 183 203 265
13 21 44 74 155 165 167 173 181 183 197 273
10 32 147 153 161 167 172 185 189 198 203 204 226
84 127 142 146 154 155 160 181 185 186 192 198 203 206 231 259 276
4 8 37 48 96 121 163 176 181 200 203 233 268
11 15 50 65 85 124 126 129 142 150 154 171 177 188 194 231 236 249
2 51 84 92 135 149 176 208 266
43 92 105 158 163 173 182 199 201
46 59 82 123 156 178 184 185 191 194 197 210 216
6 13 34 56 73 77 143 146 161 164 165 177 190 204 205 206
6 24 53 143 147 149 166 182 199 202 204 259
5 53 104 112 130 145 147 159 163 164 166 171 180 184 189 190 202 208 242 272
5 13 62 63 81 90 94 117 125 152 158 171 189 192 193 194 197 210 221 236 247 276
5 22 71 72 113 191 204 217 236
1 5 54 59 93 126 142 151 156 164 172 173 176 177 179 186 193 194 207 263 273 277
68 115 155 161 162 164 193 201 203 205 208 218 223 225 238 239
73 77 101 103 142 147 165 173 174 178 189 203 208 233 240
5 43 120 123 146 153 159 164 181 185 186 191 198 231 259
13 34 77 98 128 137 159 177 180 203 221 230
55 106 111 113 126 135 140 148 151 155 191 196 201 237 263
4 45 52 57 107 153 155 158 159 161 169 171 176 178 184 188 190 195 218 222 241
19 34 45 55 59 61 73 145 153 160 167 172 183 185 188 190 208 216 242 249 262
36 56 105 121 132 154 155 175 177 178 180 192 193 205 209 210 225 273
145 146 165 169 170 171 200 201 274
28 29 30 46 64 92 106 123 144 173 201 205 236 250
11 31 90 105 107 164 167 181 196 197 200 206 208 217 218 242 263 279
16 41 73 74 86 107 112 167 171 183 191 203 207 210 239 272 279
33 51 83 149 155 156 164 167 170 175 177 179 182 196
139 146 158 165 174 176 202 244 256 263 268
58 60 104 111 145 151 158 160 168 177 182 196 204 208 213 215 222 256 261
26 31 42 64 88 109 160 172 176 180 189 191 194 207 208 225 228 248
3 5 10 105 110 142 144 166 171 179 186 188 192 194 201 208 211 240
3 42 73 135 144 148 150 158 164 172 174 194 199 217 240 257 276
11 71 105 149 153 158 162 166 171 173 184 195 203
5 18 36 109 152 160 164 166 180 184 186 191 209 227 231
21 42 50 78 87 129 141 158 171 175 193 195 197 217 223 235 257 267 272
138 155 162 166 174 178 198 212 232 244
1 79 138 141 145 147 148 161 169 184 198 208 243
54 75 91 151 154 171 173 186 187 201 203 207 223
1 29 50 53 67 90 111 143 144 145 165 170 201 268
27 32 112 127 152 155 164 177 178 181 240
15 19 25 26 72 76 128 146 147 152 161 165 187 190 197 208
46 65 81 131 147 158 161 175 178 182 199 207 225 258
62 81 87 133 182 185 192 193 200 205 209 225 267
8 71 84 88 126 134 149 164 165 175 199 201 229 252
8 42 52 72 98 118 125 146 155 156 160 174 197 199 224 229 246
64 82 94 106 116 153 155 164 165 185 194 206 228 234
32 92 98 131 138 140 152 157 161 163 170 174 178 202 204 207 239 269
13 15 117 133 147 156 166 175 187 196 217 262
15 26 119 156 158 159 166 179 187 195 202 207 251 259
29 89 103 108 139 143 149 152 156 158 174 175 176 190 198 235 244 256
40 58 88 127 164 177 179 193 201 207 210 215 238 273 274
6 16 89 120 123 163 169 171 173 192 202 205 206 244 251 261
101 109 129 135 141 145 152 156 169 179 185 189 210 225 234 250 266
85 105 109 141 146 147 161 180 181 194 203 266 270
36 134 137 151 154 176 186 188 189 207 218 265
2 45 84 94 141 148 167 169 187 238 278
7 72 99 106 126 141 151 159 163 167 168 175 182 183 188 195 202 206 229
41 81 128 154 155 172 191 193 196 201 236 237
2 40 91 94 144 146 147 148 159 160 162 170 177 182 198 205 207 208 212
1 9 37 59 96 146 153 154 157 173 191 205
53 103 115 136 153 159 166 168 187 196 203 204 267
42 62 129 141 143 147 153 169 190 196 201 210 211 215 224 233
24 52 57 78 84 105 158 170 174 182 186 191 193 195 199 203 209 242 266
14 28 33 93 112 132 140 150 155 159 160 165 169 173 174 175 181 185 203 239
60 107 110 112 141 166 178 187 207 259
152 156 166 170 195 197 206
16 19 29 126 142 175 206 213 215 216 221 249 253 280
33 95 117 120 124 180 203 240 248 254 259 261 265 268 272 276
87 88 141 173 211 217 218 247 253 255 256 271 279
132 142 217 222 236 238 239 246 266 267 268 271 276 278 280
38 57 60 78 98 112 141 173 195 206 211 216 217 224 229 233 236 243 260 262 278
25 104 152 165 211 215 217 241 246 247 279
113 120 131 135 157 169 176 179 192 213 214 215 216 220 236 239 244 253 264 274
45 64 65 77 78 83 159 164 169 199 213 242 259 265
51 133 223 226 243 248 250 260 264 266
40 217 231 235 241 244 246 250 251 254 258
7 92 156 162 211 233 254 261 265 276
49 164 173 214 229 230 234 237 254 262 264 265 267 269
62 105 159 179 182 219 241 253 262 263 267
3 31 38 42 91 124 125 189 206 215 236 237 248 263 264 266 268 269 272
137 159 166 174 186 187 197 236 250 255 268 270 278 280
80 81 137 146 219 237 241 249 270
18 69 80 113 178 232 233 234 235 245 253 270
38 174 190 230 238 243 258 259 260 261 270 272 274
87 99 126 188 189 201 215 222 251 255 272 276 277 279
30 71 73 76 142 162 222 228 250 254 260 262 267 269 277
11 35 74 147 149 161 178 220 233 244 254 257 260 265 270 273 280
21 126 180 227 235 237 238 258 265 279
69 113 116 148 160 206 215 221 227 231 236 257 269 276 277
1 24 26 85 99 129 130 137 138 190 197 222 227 238 264
13 30 48 67 131 179 194 220 227 232 244 262 265 272
61 109 133 149 156 157 168 202 214 215 217 224 225 233 238 239 250 252 255 262 264 276
1 64 84 108 125 163 202 222 224 226 232 243 247 278
46 105 114 159 195 200 214 228 232 234 236 239 245 252 257 279
41 114 159 170 191 208 214 217 236 238 246 247 249 253 276
160 175 176 184 212 262 263 266 268 270 272 279
30 44 59 82 87 88 164 216 220 223 226 243 271 277
12 59 93 124 131 155 165 169 207 218 246 248 250 257 262 267
52 74 116 181 215 219 228 237 241 249 260 261 267 270 275
37 68 92 172 180 194 196 217 220 231 235 250 277
9 28 81 117 122 124 127 227 238 250 262 271 277
5 41 73 92 103 122 189 214 216 220 239 242 249 255 259 261 266 267 272 273 277
14 41 109 111 156 213 216 237 239 251 252 263 269 270 271 275
174 212 219 224 242 264
13 28 57 60 84 109 115 149 165 211 226 239 243 246 257 263 268 276
2 18 91 121 168 197 219 220 225 230 236 242 244 245 251 261
65 68 134 136 193 196 220 229 247 250 255 258 268 275 280
58 68 129 188 236 238 247 253 262 267
29 74 81 90 131 138 211 213 217 223 227 239 252 255 256 262 270 272 273
18 33 35 44 103 122 212 220 221 222 230 231 279
53 110 122 124 133 136 213 225 229 236 246 251 253 273
74 84 107 112 172 173 194 213 253 273
61 71 77 84 104 176 179 231 233 238 242 249 258 279
54 64 79 107 111 186 220 228 232 251 257 265 268 275 277 280
15 26 63 82 109 123 147 154 161 193 209 212 218 228 246 268 274 276
23 108 215 219 228 230 231 243 264
10 55 60 79 173 196 212 221 228 243 246 250 267 277
5 7 38 39 68 75 165 192 215 222 223 230 235 236 240 242 245 252 253 266 280
50 73 107 120 158 163 169 172 223 224 240 247 249
30 51 99 114 133 217 219 222 224 234 236 248 260 265 270
45 79 80 91 102 144 199 212 218 221 222 231 232 235 258 264 266 271 274 278
8 138 150 197 198 207 214 219 224 240 246 262 265 269 275 276 277
2 44 113 139 179 187 205 214 222 223 230 242 243 246 252 261 278
9 28 31 37 44 46 70 87 96 117 148 172 183 212 214 224 225 240 249 251 258 259 272 273
2 52 64 71 102 125 191 222 224 230 233 247 266 274
2 10 28 53 56 98 125 198 225 226 227 228 231 240 243 247 253 264
7 13 44 89 97 140 213 214 241 245 247 265 277 280
30 50 84 85 95 102 132 155 170 179 212 224 228 229 235 240 246 253 268 280
89 95 102 128 140 145 158 166 195 231 246 253 255 256 268
7 53 54 125 167 195 217 228 259 265 269 277
12 41 59 65 243 247 251 258 266
41 53 62 66 77 108 116 133 147 156 176 212 214 221 229 233 236 239 249 259 266 278 280
8 41 71 124 158 229 230 233 241 244 245 246 258 261 266 271 274
1 2 46 66 200 214 215 225 237 265 267 276
3 7 31 40 61 65 66 81 169 170 213 216 229 232 238 240 254 257
59 79 99 211 214 225 231 251 258 262 271 272 276
