160 559
5 9 19 23 40 87 105 106 150
25 82 92 116 128 142
11 12 14 16 21 31 32 72 76 91
32 39 46 62 103 131
1 34 35 39
7 8 17 25 29 33 35 36 81 94 144
6 8 19 21 36 50 57 93
6 7 9 12 26 27 29 32 107
1 8 15 26 27 127
32 42 119 120 143 159
3 13 21 24 27 33 50 97 106
3 8 18 29 36 38 47 105
11 17 37 55 76
3 19 21 25 26 27 33 34 36 37 38 59 86 95 102
9 29 38 69 134
3 21 111 125
6 13 21 25 26 31 52 56 93 131 138
12 20 21 27 39 42 52
1 7 14 59 63 65 75 130 137 157
18 26 32 40
3 7 11 14 16 17 18 33 84
34 80 101
1 24 35 67 77
11 23 29 38 80 94 114 118 132 145 154 155
2 6 14 17 39 86 102 133 143
8 9 14 17 20 29 32 53 75 160
8 9 11 14 18 78 134
30 45
6 8 12 15 24 26 30 32 34 35 112 138
28 29 37 41 109
3 17 44 70 116 131 134
3 4 8 10 20 26 29 91 136 141
6 11 14 21 34 88 95 111 136 146
5 14 22 29 33 38 39 83 88 111 112 129 158
5 6 23 29 36 62 124
6 7 12 14 35 76 81 101 114 145
13 14 30
12 14 15 24 34 52 68 113 125
4 5 18 25 34 55 91 123 159
1 20 42 68 132 147 152
30 43 63 91 109 141 144 154
10 18 40 44 50 53 59 60 69 71 74 88 104 144
41 60 61 76 89 117 127 150
31 42 48 56 64 74 81
28 48 59 78 82
4 50 58 59 61 65 71 76 104
12 59 60
44 45 66 94
52 56 79 113 147
7 11 42 46 53 54 55 68 71 77 82 108 119 156
54 57 60 63 70 71 80 158
17 18 38 49 57 58 118 155
26 42 50 69 78 79 122 158
50 51 58 59 87 104 141
13 39 50 61 88 114 152
17 44 49 62 80 137 138 145 158
7 51 52 58 60 159
46 52 54 57 67 71 112 117 121
14 19 42 45 46 47 54 68 77 106 125 129
42 43 47 51 57 68 70 74 104 129 147
43 46 55 92 137
4 35 56 68 71 73 111 153
19 41 51 68 78 133 151
44 68 69 98 143
19 46 66 69 72 107
48 65 79 129
23 58 137
38 40 50 59 60 62 63 64 87 123
15 42 53 64 65
31 51 60
42 46 50 51 58 62 79 123 146
3 65 77 90
62 76 77 103 147
42 44 60 96 134 137 142 144
19 26 85 117 123 131
3 13 36 43 46 73 78 79 119 150
23 50 59 72 73 81
27 45 53 63 76 107 120 145 146
49 53 66 71 76 96
22 24 51 56
6 36 44 77 84 86 120 150
2 45 50 126
34 84 87 117 120
21 81 83 87 94 99 104 110 117 121
75 88 103 114
14 25 81 113 123 154
1 54 68 83 84 102 108
33 34 42 55 85 92 115 118
43 102 106 110 111
72 105 108 140
3 32 39 41 102 117 120
2 61 88 98 100 116 127
7 17 105 106 112
6 24 48 84 118 120 128
14 33 101 103 106 115 119
74 79 106 116 142 143
11 107 120
64 92 144
84
92 108 132
22 36 95 102 118 150 154
14 25 87 89 91 101 113
4 73 85 95
42 46 54 60 84 131
1 12 90 93 110 111 117 119
1 11 59 89 93 95 96 115 120 122 132 133 147
8 65 78 97 114 138
50 87 90 100 116 142 148 152
30 41 120
84 89 105 114 120 133 149
16 33 34 62 89 105 123 160
29 34 58 93 115 118 120
38 49 86 102 117
24 36 55 85 107 110 115 118
88 95 106 112 114 117 158
2 31 92 96 108 117 118 121 133
43 58 75 83 84 91 105 113 115 116
24 52 88 94 101 112 114 116 119 124 159
10 50 76 95 105 118
10 78 81 83 91 94 97 106 109 110 112
58 84 116 122 131 146
53 106 121 125 128 139 143 151 157
39 68 71 75 86 111 132 136 138 144 156
35 118 125 132 136 152
16 38 59 122 124 131 133 139 154 156
82 139 144
9 43 92 128 130
2 94 122 127 130 147 158 159
34 59 60 66 136 159
19 127 128 133 140 144 149 151
4 17 31 75 104 121 125
24 40 100 106 123 124 141 144 150 151 153
25 63 106 110 116 125 130
15 27 31 74
141 150 152
32 33 123 124 129 153
19 56 61 67 74 141
17 29 56 107 123 146
122 125 126 144 145
90 130 143
32 41 54 132 135 137 143 147 148
2 74 96 108 151 157
10 25 64 96 122 140 141 150
6 41 42 74 98 123 126 130 132 139 146 147 153
24 36 56 78 139 150
33 71 78 121 138 144 150 160
40 49 60 73 106 128 141 144
108 141 153 160
110 130
1 43 76 81 101 132 135 143 145 146 152 154 155 159
63 122 130 132 142
40 55 108 124 135 150
62 132 136 144 148
24 41 86 101 125 150
24 52 150
50 123 125
19 122 142 160
34 51 53 56 115 128
10 39 57 118 128 129 150 160
26 111 146 148 157 159
