0 4
0 8
0 18
0 22
0 39
0 86
0 104
0 105
0 149
1 24
1 81
1 91
1 115
1 127
1 141
2 10
2 11
2 13
2 15
2 20
2 30
2 31
2 71
2 75
2 90
3 31
3 38
3 45
3 61
3 102
3 130
4 33
4 34
4 38
5 6
5 7
5 16
5 24
5 28
5 32
5 34
5 35
5 80
5 93
5 143
6 7
6 18
6 20
6 35
6 49
6 56
6 92
7 8
7 11
7 25
7 26
7 28
7 31
7 106
8 14
8 25
8 26
8 126
9 31
9 41
9 118
9 119
9 142
9 158
10 12
10 20
10 23
10 26
10 32
10 49
10 96
10 105
11 17
11 28
11 35
11 37
11 46
11 104
12 16
12 36
12 54
12 75
13 18
13 20
13 24
13 25
13 26
13 32
13 33
13 35
13 36
13 37
13 58
13 85
13 94
13 101
14 28
14 37
14 68
14 133
15 20
15 110
15 124
16 20
16 24
16 25
16 30
16 51
16 55
16 92
16 130
16 137
17 19
17 20
17 26
17 38
17 41
17 51
18 58
18 62
18 64
18 74
18 129
18 136
18 156
19 25
19 31
19 39
20 32
20 83
21 33
21 79
21 100
22 23
22 34
22 66
22 76
23 28
23 37
23 79
23 93
23 113
23 117
23 131
23 144
23 153
23 154
24 38
24 85
24 101
24 132
24 142
25 28
25 31
25 52
25 74
25 159
26 77
26 133
27 29
27 44
28 29
28 31
28 33
28 34
28 111
28 137
29 36
29 40
29 108
30 43
30 69
30 115
30 130
30 133
31 90
31 135
31 140
32 33
32 87
32 94
32 110
32 135
32 145
33 37
33 38
33 82
33 87
33 110
33 111
33 128
33 157
34 35
34 61
34 123
35 75
35 80
35 100
35 113
35 144
37 51
37 67
37 112
37 124
38 54
38 90
38 122
38 158
39 41
39 67
39 131
39 146
39 151
40 42
40 62
40 90
40 108
40 140
40 143
40 153
41 43
41 49
41 52
41 58
41 59
41 68
41 70
41 73
41 87
41 103
41 143
42 59
42 60
42 75
42 88
42 116
42 126
42 149
43 47
43 55
43 63
43 73
43 80
44 47
44 58
44 77
44 81
45 49
45 57
45 58
45 60
45 64
45 70
45 75
45 103
46 58
46 59
47 65
47 93
48 51
48 55
48 78
48 112
48 146
49 52
49 53
49 54
49 67
49 70
49 76
49 81
49 107
49 118
49 155
50 53
50 56
50 59
50 62
50 69
50 70
50 79
50 157
51 56
51 57
51 117
51 154
52 68
52 77
52 78
52 121
52 157
53 57
53 58
53 86
53 103
53 140
54 60
54 87
54 113
54 151
55 61
55 79
55 136
55 137
55 144
55 157
56 57
56 59
56 158
57 66
57 70
57 111
57 116
57 120
58 67
58 76
58 105
58 124
58 128
59 67
59 69
59 73
59 103
59 128
59 146
60 91
60 136
61 67
61 70
61 72
61 110
61 152
62 67
62 77
62 132
62 150
63 67
63 68
63 97
63 142
64 65
64 68
64 71
64 106
65 78
65 128
66 136
67 86
67 122
70 78
70 122
70 145
71 76
71 89
72 75
72 76
72 102
72 146
73 95
73 133
73 136
73 141
73 143
74 84
74 116
74 122
74 130
75 77
75 78
75 118
75 149
76 80
77 106
77 119
77 144
77 145
78 95
80 83
80 85
80 119
80 149
81 125
82 83
82 86
82 116
82 119
83 86
83 93
83 98
83 103
83 109
83 116
83 120
84 87
84 102
84 113
85 112
85 122
85 153
86 101
86 107
87 91
87 114
87 117
88 101
88 105
88 109
88 110
89 104
89 107
89 139
90 101
90 116
90 119
91 97
91 99
91 115
91 126
92 104
92 105
92 111
93 117
93 119
93 127
94 100
94 102
94 105
94 114
94 118
95 105
95 115
95 141
95 142
96 106
96 119
97 143
99 107
99 131
100 101
100 117
100 149
100 153
101 112
103 130
104 109
104 110
104 116
104 118
105 114
105 119
105 121
105 131
105 132
105 146
106 113
106 137
107 115
107 141
107 147
107 151
108 119
109 113
109 119
109 132
109 148
110 122
110 159
111 114
111 117
111 119
112 116
113 114
113 117
114 116
114 157
115 116
115 117
115 120
115 132
117 118
117 123
117 158
120 121
120 130
120 145
121 124
121 127
121 138
121 142
121 150
121 156
122 131
122 135
122 137
122 143
122 155
123 124
123 131
123 135
123 151
124 130
124 132
124 138
124 153
124 155
125 138
125 143
126 127
126 129
127 129
127 146
127 157
127 158
128 135
128 158
129 132
129 139
129 143
129 148
129 150
131 140
131 143
131 149
131 150
131 152
134 140
134 149
134 151
135 152
136 140
137 145
138 143
138 144
139 142
140 142
140 146
140 147
141 150
141 156
142 149
143 145
143 146
143 152
144 149
145 149
145 159
147 152
147 159
149 151
149 153
149 154
149 158
156 159
158 159
