0 1
0 2
0 3
0 4
0 5
0 6
0 9
0 10
0 11
0 14
0 16
0 18
0 21
0 23
0 24
0 26
0 28
0 31
0 33
0 40
0 43
0 45
0 46
0 53
0 55
0 65
0 69
0 70
0 75
0 79
0 83
0 88
0 99
0 107
0 111
0 115
0 118
0 124
0 125
0 129
0 132
0 138
0 146
0 150
0 168
0 172
0 175
0 181
0 182
2 4
2 60
2 127
2 142
2 188
3 4
3 5
3 6
3 7
3 8
3 9
3 11
3 18
3 19
3 22
3 58
3 72
3 90
3 93
3 94
3 108
3 170
3 175
3 197
4 5
4 6
4 7
4 8
4 10
4 11
4 12
4 30
4 35
4 50
4 57
4 72
4 84
4 94
4 154
4 167
4 197
5 13
5 20
5 29
5 46
5 144
5 194
6 7
6 13
6 15
6 17
6 19
6 23
6 25
6 26
6 50
6 63
6 65
6 73
6 77
6 96
6 98
6 101
6 102
6 117
6 124
6 126
6 128
6 129
6 130
6 143
6 153
6 157
6 187
6 196
7 8
7 12
7 14
7 16
7 18
7 21
7 22
7 27
7 28
7 30
7 40
7 45
7 48
7 59
7 80
7 82
7 86
7 92
7 101
7 116
7 117
7 121
7 131
7 144
7 164
7 184
8 9
8 10
8 11
8 12
8 21
8 25
8 29
8 38
8 39
8 50
8 53
8 57
8 58
8 62
8 74
8 93
8 96
8 102
8 110
8 135
8 176
8 178
9 31
9 36
9 41
9 47
9 58
9 74
9 77
9 116
9 123
9 148
9 191
9 192
10 14
10 16
10 17
10 22
10 29
10 33
10 55
10 59
10 66
10 79
10 92
10 137
10 141
10 155
10 165
10 177
10 184
10 193
11 17
11 34
11 37
11 67
11 91
11 94
11 122
11 127
11 169
11 180
12 13
12 26
12 34
12 35
12 44
12 47
12 49
12 76
12 108
12 118
12 144
12 172
12 181
13 15
13 19
13 24
13 42
13 64
13 109
13 117
13 147
13 152
13 156
14 15
14 24
14 27
14 32
14 33
14 61
14 78
14 122
14 146
14 178
15 20
15 27
15 28
15 32
15 38
15 62
15 68
15 75
15 90
15 103
15 107
15 138
15 158
15 163
15 177
16 20
16 31
16 38
16 42
16 70
16 81
16 84
16 113
16 120
16 145
16 151
16 185
17 48
17 68
17 85
17 110
17 135
17 161
17 172
18 36
18 37
18 41
18 49
18 57
18 61
18 86
18 169
19 23
19 64
19 129
20 113
20 131
20 188
21 32
21 53
21 60
21 67
21 83
21 87
21 107
21 136
21 144
21 160
21 177
22 25
22 30
22 44
22 48
22 61
22 63
22 65
22 82
22 100
22 124
22 141
22 156
22 166
22 182
22 183
23 69
23 170
24 36
24 56
24 68
24 73
24 76
24 99
24 109
24 136
24 161
24 162
24 168
24 192
24 193
25 46
25 51
25 102
25 198
26 35
26 55
26 59
26 97
26 134
26 142
26 159
26 173
26 190
27 37
27 60
27 106
27 111
27 112
27 150
27 183
28 39
28 63
28 71
28 81
28 115
28 120
28 126
28 141
28 163
28 168
28 173
28 187
29 47
29 54
29 64
29 114
29 155
29 166
29 173
29 191
29 195
30 43
30 90
30 92
30 123
32 42
32 80
33 34
33 52
33 143
35 43
35 44
35 79
35 138
35 157
35 169
36 108
36 118
36 180
37 39
37 73
37 89
37 100
37 105
37 149
37 185
37 198
38 40
38 45
38 49
38 112
38 121
38 164
38 178
39 41
39 54
39 67
39 71
39 87
39 97
39 166
40 119
41 88
41 152
41 176
42 89
42 106
42 133
42 149
42 150
42 160
43 52
43 56
43 81
43 89
43 96
43 99
43 104
43 119
43 151
43 160
43 179
43 195
43 198
44 157
45 52
45 56
45 71
45 95
45 120
45 140
47 66
47 100
47 130
48 70
48 74
48 80
48 132
49 51
49 54
49 167
49 171
50 51
50 122
50 194
51 147
51 161
51 179
51 195
52 76
53 56
53 72
53 83
53 139
54 159
54 187
54 194
55 69
55 105
56 142
56 164
56 188
57 88
58 62
58 66
58 97
58 103
59 85
59 101
59 112
59 170
59 183
60 77
60 115
60 134
62 86
63 84
63 147
64 87
64 151
64 163
65 111
65 148
66 82
68 143
68 149
69 75
70 182
71 137
71 165
72 103
72 104
72 119
74 78
75 91
75 148
76 106
77 78
77 95
77 116
78 126
78 196
80 85
80 113
80 145
80 175
80 197
82 98
85 114
86 146
87 193
88 123
88 133
88 136
89 98
89 181
90 91
90 93
90 104
91 95
91 153
91 154
93 125
93 139
96 105
96 109
96 130
96 156
96 158
98 137
98 174
98 186
99 196
100 114
102 139
104 110
104 121
104 127
104 194
106 125
108 145
109 128
109 152
110 132
110 174
112 135
113 158
114 186
116 176
116 199
118 167
118 189
119 153
119 185
120 140
121 131
122 162
124 128
124 171
129 133
129 140
130 135
130 199
132 162
133 134
133 180
134 186
135 192
136 170
136 174
142 159
143 165
143 189
148 154
149 155
153 184
155 190
158 189
163 171
166 199
177 179
181 190
189 191
