200 597
2 3 4 5 6 7 10 11 12 15 17 19 22 24 25 27 29 32 34 41 44 46 47 54 56 66 70 71 76 80 84 89 100 108 112 116 119 125 126 130 133 139 147 151 169 173 176 182 183
1
1 5 61 128 143 189
1 5 6 7 8 9 10 12 19 20 23 59 73 91 94 95 109 171 176 198
1 3 4 6 7 8 9 11 12 13 31 36 51 58 73 85 95 155 168 198
1 4 5 14 21 30 47 145 195
1 4 5 8 14 16 18 20 24 26 27 51 64 66 74 78 97 99 102 103 118 125 127 129 130 131 144 154 158 188 197
4 5 7 9 13 15 17 19 22 23 28 29 31 41 46 49 60 81 83 87 93 102 117 118 122 132 145 165 185
4 5 8 10 11 12 13 22 26 30 39 40 51 54 58 59 63 75 94 97 103 111 136 177 179
1 4 9 32 37 42 48 59 75 78 117 124 149 192 193
1 5 9 15 17 18 23 30 34 56 60 67 80 93 138 142 156 166 178 185 194
1 4 5 9 18 35 38 68 92 95 123 128 170 181
5 8 9 14 27 35 36 45 48 50 77 109 119 145 173 182
6 7 13 16 20 25 43 65 110 118 148 153 157
1 8 11 16 25 28 33 34 62 79 123 147 179
7 14 15 21 28 29 33 39 63 69 76 91 104 108 139 159 164 178
1 8 11 21 32 39 43 71 82 85 114 121 146 152 186
7 11 12 49 69 86 111 136 162 173
1 4 8 37 38 42 50 58 62 87 170
4 7 14 24 65 130
6 16 17 114 132 189
1 8 9 33 54 61 68 84 88 108 137 145 161 178
4 8 11 26 31 45 49 62 64 66 83 101 125 142 157 167 183 184
1 7 20 70 171
1 14 15 37 57 69 74 77 100 110 137 162 163 169 193 194
7 9 23 47 52 103 199
1 7 13 36 56 60 98 135 143 160 174 191
8 15 16 38 61 107 112 113 151 184
1 8 16 40 64 72 82 116 121 127 142 164 169 174 188
6 9 11 48 55 65 115 156 167 174 192 196
5 8 23 44 91 93 124
1 10 17
15 16 22 43 81
1 11 15 35 53 144
12 13 34
5 13 27 44 45 80 139 158 170
10 19 25 109 119 181
12 19 28 40 74 90 101 106 150 186 199
9 16 17 41 46 50 113 122 165 179
9 29 38 42 55 68 72 88 98 167
1 8 39 120
10 19 40 89 153 177
14 17 33 90 107 134 150 151 161
1 31 36 53 57 82 90 97 100 105 120 152 161 180 196 199
13 23 36 158
1 8 39 53 57 72 96 121 141
1 6 26
10 13 30 67 101 131
8 18 23 71 75 81 133
13 19 39 52 55 168 172
5 7 9 52 123 195
26 50 51 148 162 180 196
34 44 46 77
1 9 22 57 73 84 140
30 40 50 160 188 195
1 11 27 70 106
25 44 46 54 143 165 189
5 9 19 89
4 9 10 63 67 98 104
8 11 27 86 102 113 171 184
3 22 28 78 116 135
15 19 23
9 16 59 87
7 23 29 85 148
14 20 30 88 152 164
1 7 23 112 149
11 48 59 83
12 22 40
16 18 25 144 150
1 24 56 76
1 17 49 183
29 40 46 138 166
4 5 54 104 105 120
7 25 38
9 10 49 79
1 16 70 92 149
13 25 53 107
7 10 61 79 96 117
15 75 78 127 197
1 11 36
8 33 49 86 114 146 176 198
17 29 44
8 23 67 99
1 22 54
5 17 64
18 60 81 115
8 19 63 147
22 40 65 194
1 42 58 124 134 137
38 43 44 99 182
4 16 31 92 94 105
12 76 91 96 154 155
8 11 31
4 9 91 126 140
4 5 12
46 78 92
7 9 44 106 110 131 157 159
27 40 59
7 83 90 138 175 187
1 25 44 197
23 38 48 115
7 8 60
7 9 26 140
16 59 73
44 73 91 111 122 128 195
38 56 97
28 43 77 126
1 16 22
4 13 37 146
14 25 97 129 153
9 18 105 133 175
1 28 66
28 39 60 136
17 21 81 159
30 86 101 187
1 29 61
8 10 78 177 200
7 8 14
1 13 37 168 190
41 44 73 154 186
17 29 46 141
8 39 105 132
12 15 51 163
10 31 89
1 7 23 129 172
1 94 107
7 29 79
3 12 105
7 110 125
1 7 20 134 141
7 48 97 136 200
8 21 122
1 49 111 163
43 89 130 135 181
27 61 134 187
9 18 113 131 193
22 25 89 171 175
11 72 99
1 16 36
54 94 103
46 121 130
11 23 29
3 27 57 160
7 34 69 166 190
6 8 13 22
17 81 109
1 15 87
14 52 64
10 66 76 155
38 43 69 156
1 28 43
17 44 65
14 42 110
7 92 120 185
5 92 149
11 30 150 191
14 23 97
7 36 45
16 97 114 190
27 55 143
22 43 44
18 25 52
25 123 133
16 29 65 172
8 39 57
11 72 144
23 30 40 200
5 50 119
1 25 29
12 19 36
4 24 60 137
50 125 164
1 13 18
27 29 30
99 111 137
1 4 81
9 42 117
11 16 22 180
9 15 39
44 52 178
12 37 134
1 13 90 191
1 23 71
23 28 60
8 11 154
17 38 120
99 115 135
7 29 55
3 21 57
119 144 159 192
27 156 182
10 30 190
10 25 136
11 25 88
6 51 55 105
30 44 52
7 79 100
4 5 81
26 38 44
117 131 167
