180 897
5 8 12 22 47 48 82 159
3 8 10 11 13 17 22
2 8 10 77
6 8 10 11 12 17 18 20 25 58 64 123 126
1 7 8 12 19 21 22 101
4 13 21 85 175
5 20 47 143
1 2 3 4 5 9 175
8 10 11 168
2 3 4 9 15 17 18 58 173
2 4 9 16 18 19 21
1 4 5 13 21 22 44 169
2 6 12 15 19 20 22 44 55
166
10 13 18 21 148
11 22 32
2 4 10 19
4 10 11 15 21 57
5 11 13 17 20 22 146
4 7 13 19 21
5 6 11 12 15 18 20 56 106 133
1 2 5 12 13 16 19 72
30 39 41 42 43 45 49 80
26 33 38 39 45 47 125 151
4 26 33 34 44 48
24 25 36 38 43
28 29 38 45 48 98 125 146 164
27 32 33 34 35 37 42 44 45 163
27 32
23 35 38 39 40 42 44 69 115 123 165
32 36 44 45 46 93
16 28 29 31 35 36 37 39 40 42 48
24 25 28 35 36 40 46 132
25 28 43 46 61
28 30 32 33 41 42 48 165
26 31 32 33 37 38 42 47 49
28 32 36 41 46 72
24 26 27 30 36 60
23 24 30 32
30 32 33 41 46 47 75 155 179
23 35 37 40
23 28 30 32 35 36 43 45 59
23 26 34 42 44
12 13 25 28 30 31 43 48 56 99
23 24 27 28 31 42 46 49
31 33 34 37 40 45 47
1 7 24 36 40 46 49 148
1 25 27 32 35 44
23 36 45 47 72
56 65 71 72 73 75 76 80 82
57 61 69 74 83
58 59 63 64 66 67 74 76 82 83 176
55 60 66 68 69 71 72 73 78 82
57 58 61 62 65 66 70 73 76 78 80 82 172
13 53 56 65 68 69 71 74 75 78 82 136
21 44 50 55 58 61 67 69 81 106
18 51 54 59 60 62 63 81
4 10 52 54 56 61 63 68 70 71 72 76 77 80 83 132
42 52 57 60 67
38 53 57 59 63 65 76 77 81 82 132
34 51 54 56 58 62 63 79
54 57 61 63 65 68 70 79 81 83
52 57 58 60 61 62 69 72 77 79 80 89 140
4 52 66 70 71 74 99
50 54 55 60 62 69 71 76 77
52 53 54 64 69 71 78
52 56 59 70 74
53 55 58 62 83
30 51 53 55 56 63 65 66 70 76 78 80 83
54 58 62 64 67 69 73 81 98
50 53 55 58 64 65 66 72 75 78 79 82 119 126
22 37 49 50 53 58 63 71 75
50 53 54 70 75 76 80 81 82 87 154 176
51 52 55 64 67 77 80 81 82 88
40 50 55 71 72 73 76 77 81 171
50 52 54 58 60 65 69 73 75 81 83 156
3 58 60 63 65 74 75 80 82 106
53 54 55 66 69 71
61 62 63 71 160 167 171
23 50 54 58 63 69 73 74 77 152
56 57 60 62 70 73 74 75 76 83
1 50 52 53 54 55 60 71 73 74 77 102 148 177
51 52 58 62 68 69 76 81 129 164
91 102 103 104 106 110 122 136
6 89 90 97 103 105 107 113 120 123 124 126
91 96 105 119 125
73 90 94 96 100 104 108 109 125
74 92 93 100 101 113 117 122 125
63 85 93 94 98 112 119 123
85 87 103 116
84 86 97 103 104 112 120 123 126 142
88 96 97 103 106 107 112 121 126 166
31 88 89 94 99 100 107 118 122
87 89 93 96 99 106 108 111 114 116 123 126
96 98 104 107 109 110 112 117 120
86 87 92 94 95 103 105 114 119 120
85 91 92 103 105 108 116 118
27 70 89 95 104 105 111 117 123 124
44 64 93 94 100 103 106 118 120 121
87 88 93 99 104 106 108 111 125
5 88 102 107 111 113 116 117 118 125
82 84 101 105 107 118 126 128
84 85 90 91 92 96 97 99 107 117 118 121 166
84 87 91 95 98 100 110 112 116 123 124
85 86 96 97 98 102 111 114 119 120 122 126
21 56 77 84 92 94 99 100 114 118 120 122 124 126 132
85 92 93 95 101 102 103 109 110 112 117
87 94 97 100 111 115 116 126 138 145
87 95 107 111 114 120
84 95 104 107 113 122
94 98 100 101 105 108 109 124 125
89 91 92 95 104 107 118 119 147 179
85 88 101 110 115 117 118 122 123 124 125 144 166
94 96 105 106 109 117 118 119
30 108 113 123 125
90 94 97 101 104 108 122
88 95 98 101 103 107 113 114 123 143
93 97 99 101 102 103 106 112 113 114 122
71 86 89 96 105 112 114 123 124 126
85 91 95 96 99 105 106 109
92 99 103 122
84 88 93 105 106 110 113 116 118 121 123 124
4 30 85 89 91 94 98 104 113 115 117 119 122
85 98 104 106 111 113 119 122
24 27 86 87 88 100 101 111 113 115
4 71 85 91 92 94 102 105 106 108 119
128 131 137 142 143 150 154 156 159 160 163 166 172
102 127 132 134 138 142 150 151 157 166 167 175 178
83 131 132 134 138 140 146 147 153 155 161 163 167 168 174 176 177 178
133 139 140 147 148 149 151 158 160 166 173 174 177
127 129 134 136 138 141 150 152 156 159 164 165 167 172 173 180
33 58 60 106 128 129 133 134 150 151 156 157 170 171 173 176 178 179
21 130 132 134 140 149 152 157 160 162 164 167 168 169
128 129 131 132 133 144 146 149 150 151 157 159 162 168 169 176 178
145 149 169 174 175 180
55 84 131 137 142 146 147 152 154 158 166 169 172 175 176 178 180
127 136 149 156 160 161 168 169 171 172 176
108 128 129 131 139 145 147 148 152 159 161 162 164 172 176 178
130 138 143 145 147 152 158 160 162 163 169 170 171 173
63 129 130 133 147 150 153 156 159 162 170 173 175
131 148 150 152 157 162 174 175 180
91 127 128 136 144 145 151 154 158 166 168 173
7 117 127 139 151 155 157 162 163 164 171 179
113 134 142 147 149 157 162 163 165
108 135 138 139 142 156 165 167 169 178 179
19 27 129 134 136 151 163 165 167 174 175 176
112 129 130 136 138 139 140 144 149 153 155 157 163 164 173 175 176 177 178
15 47 82 130 138 141 151 152 162 166 170
130 133 134 135 137 144 147 157 158 160 168 172 176 177
127 128 131 132 134 140 141 163 164 168 169 176 178
24 128 130 132 134 142 143 146 148 156 158 159 161 170 171 173 174 176
80 131 133 136 138 139 141 148 157 158 161 165 170 171 175
129 140 147 156 158 159 160 161 162 163 164 169 173 175
73 127 136 142 156 158 165 166 167 172 177
40 129 143 147 156 159 171 172 174
76 127 131 132 137 140 145 151 153 154 155 157 161 173 174
128 132 133 134 141 143 144 147 149 152 156 161 169 172 175 177 178 179
130 136 139 142 149 151 152 153 154 164 168 169 171
1 127 131 134 138 140 151 153 155 166 169 174 175
79 127 130 133 137 139 149 153 162 169
129 137 138 151 152 153 156 157 171 173 176 177 179
133 134 138 139 140 141 143 144 148 153 160 177 179 180
28 127 129 139 143 144 146 147 150 153 164 167 169 175 177
27 83 131 133 138 143 147 150 153 158 163 178
30 35 131 144 145 146 152 154 167 172 173 174 180
14 92 103 113 127 128 130 136 142 148 154 159 176 179
79 128 129 131 133 145 146 154 163 165 171 172 173
9 129 133 134 137 142 149 150 158 170 178 180
12 133 134 135 136 137 139 145 150 153 157 158 159 160 163 177 178
132 139 140 148 151 152 168 171
75 79 132 137 139 143 151 152 155 158 161 167 170 172 179
54 127 131 136 137 138 149 154 155 157 165 167 171 174 178
10 130 131 132 139 140 142 147 151 153 156 161 165 167 177 178 180
129 130 135 141 146 151 155 156 159 165 172 179
6 8 128 135 136 140 141 146 147 152 153 157 159 163 177
52 73 129 132 134 136 137 138 146 147 149 150 151 161 166
82 129 130 147 149 154 157 161 162 163 169 173 175
128 129 132 134 136 138 145 147 150 157 164 168 169 172 173
40 112 132 143 145 157 161 162 166 171 174 180
131 135 136 141 162 165 168 173 179
