216 839
5 7 25 33 34 48 186
11 18 24 38 146 198
6 15 17 23 64 161
6 10 18 20 22 26 43 127 205
1 9 14 25 28 29 35 39 103 111 165
3 4 15 30 36 37
1 15 16 20 25 30 43 181
11 24 26 28 32
5 14 21 25 36
4 16 19 23 25 41 208
2 8 17 18 28
17 21 31 38 39 40 184
23 34 36 37 42 145 151 171
5 9 40 90 102 146
3 6 7 22 33 40 128 144 205
7 10 17 18 20 33 34 39 41 81 149
3 11 12 16 33 209
2 4 11 16 22 24 29 32 36 37 40 42
10 22 23 25 26 28 34 42 114 139 188
4 7 16 21 29 36 39 44
9 12 20 31 33 37 38 41
4 15 18 19 27 28 39
3 10 13 19 30 36 38 182
2 8 18 33 35 40 42 55
1 5 7 9 10 19 34 39 82 93
4 8 19 31 32 33 34 35 38 41 176 214
22 38 40 41 42 112
5 8 11 19 22 31 33 35 108 191 200 202 208
5 18 20 31 35 36 39
6 7 23 31 36 41 126 143
12 21 26 28 29 30 35 43
8 18 26 39 76 123 145 158 188
1 15 16 17 21 24 26 28 35 37 38 39 41 43 81 171
1 13 16 19 25 26
5 24 26 28 29 31 33 42 63 88 187
6 9 13 18 20 23 29 30 39 41 52
6 13 18 21 33 42 43 95
2 12 21 23 26 27 33 40
5 12 16 20 22 25 29 32 33 36 43 146
12 14 15 18 24 27 38
10 16 21 26 27 30 33 36 43 44 89 126
13 18 19 24 27 35 37
4 7 31 33 37 39 41 69 176
20 41 176
51 77
55 63 68 75 79 82
48 49 54 58 59 60 61 68 145
1 47 51 59 63 71 75 76 79 83 84 206 216
47 54 55 73 82 165
56 65 68 73 77 83
45 48 52 57 80 82 85 122 201
36 51 56 76 114 151
60 72 76 82 167
47 49 59 62 66 67 69 74 75 79 159
24 46 49 58 59 64 68 76
50 52 58 65 68 70 79 82 84 85 86
51 69 70 200
47 55 56 60 75 78 82 98 176
47 48 54 55 60 72 75 87
47 53 58 59 64 69 70 79 137 173
47 64 67 73 83 84
54 66 72 179
35 46 48 72 77 78 84 154
3 55 60 61 70
50 56 66 69 81
54 62 65 68 81
54 61 69 74 83 187 207
46 47 50 55 56 66 69 80 81 85 86 100 133
43 54 57 60 65 67 68 72 73 77 98
56 57 60 64 71 76 83 87
48 70 73 86 109
53 59 62 63 69 73 83 112 182
49 50 61 69 71 72 77 80 86 109
54 67 82 200
46 48 54 58 59 90 142 198
32 48 52 53 55 70 83 190
45 50 63 69 73 78 83
58 63 77 80 87 192
46 48 54 56 60 80 84 145
51 68 73 78 79 117 150
16 33 65 66 68 123
25 46 49 51 53 56 58 74 86 132 197
48 50 61 67 70 72 76 77 84 86
48 56 61 63 79 83 85 86 101 208
51 56 68 84 174
56 68 71 73 82 83 84
59 70 78
35 94 96 97 99 100 127 129 177
41 95 103 106 111 112 122 126 128 216
14 75 102 104 105 106 112 114 128 160
106 127 128 129
99 100 101 104 109 119 120 121 122
25 100 118 120 129 164
88 96 98
37 89 99 106 115 116 126 130
88 94 104 123 124 125 171 193
88 100 101 118 123 129
58 69 94 101 103 105 106 108 109 112 117 120 124 127 129 130
88 92 95 100 107 113 116 119 124 130 140
68 88 92 93 97 99 103 112 116 117 151 185
84 92 97 98 109 110 116 120 123 127
14 90 127
5 89 98 100 115 116 122 215
90 92 96 110 115 122 156 186 205
90 98 110 115 120 130 164
89 90 91 95 98 111 117 119 123 129
99 108 162
28 98 107 123 127
71 73 92 98 101 112 121
101 104 105 113 117 119 122 125
5 89 106 113 120 151
27 72 89 90 98 100 109 115 123
99 110 111 124
19 52 90 117 123 135
95 103 104 105 112 123 126 129 130 198
95 99 100 101 103 118 120 124 126 184
80 98 100 106 110 114 121 122 124 129 152
93 97 116 129
92 99 106 110 126 183
92 93 98 101 105 111 116
92 109 117 125 140 194
51 89 92 103 104 110 117 130
32 81 96 97 101 106 108 112 114 115 125 204
96 98 99 113 116 117 125
96 110 121 123 124 129
30 41 89 95 115 116 119 137
4 88 91 98 101 102 108
15 89 90 91
88 91 93 97 98 106 115 117 118 125
95 98 99 105 115 122 134
136 144 152 165 168
82 136 137 143 147 149 150 155 158 169 170 182
68 141 153 162 166
130 142 146 149 150 162 169 207
114 148 150 154 155
131 132 142 151 152 159
60 126 132 146 155 161 171 213
154 158 161 166
19 149 155 163 165 173
99 121 147 151 163 167 168
133 151 156 164
75 134 136 151 152 153 162 163 165 169
30 132 154 155 160 168 171
15 131 150 151 157 173
13 32 47 79 146 159
2 14 39 134 137 145 148 159 166
132 140 148 151 165 180
135 146 147 152 155 161 166 170 172
16 132 134 139 154 158 162 216
80 132 134 135 144 155 156 158 171 199
13 52 100 111 136 140 141 142 144 147 167
117 131 136 142 148 155 161 163 170 171 173
133 142 154 155 156 168 169
63 135 138 143 149 153 167 170 172 190
132 135 137 139 143 148 150 152 153
104 141 150 153 165 167
144 165 203
32 132 138 149 150 159 165 171
54 136 145 146 158 170 192
90 143 163 168 171
3 137 138 148 152 163 165 167
107 133 134 142 149 169 173
139 140 142 152 160 161
93 105 141 206
5 49 131 139 142 147 156 157 158 161 167 170 214
133 138 146 148 169 171
53 140 151 154 156 161 165 168 173
131 140 143 153 160 167 170
132 134 142 153 162 166 190
132 148 152 154 159 165 168 173
13 33 96 137 143 150 152 158 160 166 172
148 154 171 198 202
60 139 144 152 162 167 170 183
85 177 183 184 196 200 203 204 208
183 193 208 212
26 43 44 58 177 178 194 209 210 215
88 174 176 186 206 213
176 190 191 192 197 198 202 205 213 214
62 187 193 196 200 203 204 207 208 211
147 185 186 188 193 205
7 183 191 200 204 208 214 215
23 72 132 183 186 189 190 191 202 206 208
119 173 174 175 181 182 196 198 199 207 210 211
12 116 174 203
100 180 188 193 198 201 202 206
1 104 177 180 182 187 211
35 67 179 186 196 204 211 212
19 32 180 185 201 207 208
182 202
76 154 169 178 182 192 194 204 206 210
28 178 181 182 195 198 203
78 159 178 190 197 201 202 204 216
96 175 179 180 185 198 199 200 208 216
121 176 190 196 198 207 215
191 205 212 216
174 179 183 187 194 202 214
82 178 192 206 207 215 216
2 75 115 172 178 183 185 191 193 194 200 201 205 215
150 183 193 202 204 207 210 212
28 57 74 174 179 181 193 198 202 210 211
51 185 188 192 198 202 204
28 172 178 182 185 189 192 196 199 200 201 210 213
157 174 179 184 191 211 215
123 174 179 181 187 190 192 199 201 213
4 15 104 178 180 195 198 211
48 164 177 182 185 190 197 214 216
67 134 179 183 188 194 197 199 211 216
10 28 84 174 175 179 181 182 188 193 210
17 176
176 183 190 199 200 202 208
179 183 186 187 200 203 205 207 214
175 187 195 199
137 177 178 202 204 214
26 165 178 181 196 206 211 213 216
103 176 181 194 197 198 203
48 89 149 192 193 195 197 206 207 214
