0 4
0 6
0 24
0 32
0 33
0 47
0 185
1 10
1 17
1 23
1 37
1 145
1 197
2 5
2 14
2 16
2 22
2 63
2 160
3 5
3 9
3 17
3 19
3 21
3 25
3 42
3 126
3 204
4 8
4 13
4 24
4 27
4 28
4 34
4 38
4 102
4 110
4 164
5 14
5 29
5 35
5 36
6 14
6 15
6 19
6 24
6 29
6 42
6 180
7 10
7 23
7 25
7 27
7 31
8 13
8 20
8 24
8 35
9 15
9 18
9 22
9 24
9 40
9 207
10 16
10 17
10 27
11 16
11 20
11 30
11 37
11 38
11 39
11 183
12 22
12 33
12 35
12 36
12 41
12 144
12 150
12 170
13 39
13 89
13 101
13 145
14 21
14 32
14 39
14 127
14 143
14 204
15 16
15 17
15 19
15 32
15 33
15 38
15 40
15 80
15 148
16 32
16 208
17 21
17 23
17 28
17 31
17 35
17 36
17 39
17 41
18 21
18 22
18 24
18 25
18 27
18 33
18 41
18 113
18 138
18 187
19 20
19 28
19 35
19 38
19 43
20 30
20 32
20 36
20 37
20 40
21 26
21 27
21 38
22 29
22 35
22 37
22 181
23 32
23 34
23 39
23 41
23 54
24 33
24 38
24 81
24 92
25 30
25 31
25 32
25 33
25 34
25 37
25 40
25 175
25 213
26 37
26 39
26 40
26 41
26 111
27 30
27 32
27 34
27 107
27 190
27 199
27 201
27 207
28 30
28 34
28 35
28 38
29 30
29 35
29 40
29 125
29 142
30 34
30 42
31 38
31 75
31 122
31 144
31 157
31 187
32 34
32 36
32 37
32 38
32 40
32 42
32 80
32 170
34 41
34 62
34 87
34 186
35 38
35 40
35 51
36 41
36 42
36 94
37 39
38 42
38 145
40 42
40 43
40 88
40 125
42 68
42 175
43 175
44 50
44 76
45 54
45 62
45 67
45 74
45 78
45 81
46 47
46 48
46 53
46 57
46 58
46 59
46 60
46 67
46 144
47 50
47 58
47 62
47 70
47 74
47 75
47 78
47 82
47 83
47 205
47 215
48 53
48 54
48 72
48 81
48 164
49 55
49 64
49 67
49 72
49 76
49 82
50 51
50 56
50 79
50 81
50 84
50 121
50 200
51 55
51 75
51 113
51 150
52 59
52 71
52 75
52 81
52 166
53 58
53 61
53 65
53 66
53 68
53 73
53 74
53 78
53 158
54 57
54 58
54 63
54 67
54 75
55 57
55 64
55 67
55 69
55 78
55 81
55 83
55 84
55 85
56 68
56 69
56 199
57 59
57 74
57 77
57 81
57 97
57 175
58 59
58 71
58 74
58 86
59 63
59 68
59 69
59 78
59 136
59 172
60 63
60 66
60 72
60 82
60 83
61 65
61 71
61 178
62 71
62 76
62 77
62 83
62 153
63 69
64 65
64 68
64 80
65 67
65 80
66 68
66 73
66 82
66 186
66 206
67 68
67 79
67 80
67 84
67 85
67 99
67 132
68 71
68 72
68 76
68 97
69 70
69 75
69 82
69 86
70 72
70 85
70 108
71 72
71 82
71 111
71 181
72 76
72 79
72 85
72 108
73 81
73 199
74 89
74 141
74 197
75 82
75 189
76 77
76 82
77 79
77 86
77 191
78 79
78 83
78 144
79 116
79 149
80 122
81 85
81 131
81 196
82 83
82 85
83 84
83 85
83 100
83 207
84 173
87 93
87 95
87 96
87 98
87 99
87 126
87 128
87 176
88 94
88 102
88 105
88 110
88 111
88 121
88 125
88 127
88 215
89 101
89 103
89 104
89 105
89 111
89 113
89 127
89 159
90 105
90 126
90 127
90 128
91 98
91 99
91 100
91 103
91 108
91 118
91 119
91 120
91 121
92 99
92 117
92 119
92 128
92 163
93 95
93 97
94 98
94 105
94 114
94 115
94 125
94 129
95 103
95 122
95 123
95 124
95 170
95 192
96 99
96 100
96 117
96 122
96 128
97 100
97 102
97 104
97 105
97 107
97 108
97 111
97 116
97 119
97 123
97 126
97 128
97 129
98 99
98 106
98 112
98 115
98 118
98 123
98 129
98 139
99 102
99 111
99 115
99 116
99 150
99 184
100 108
100 109
100 115
100 119
100 122
100 126
101 126
102 114
102 115
102 121
102 214
103 109
103 114
103 121
103 155
103 185
103 204
104 109
104 114
104 119
104 129
104 163
105 110
105 116
105 118
105 122
105 128
106 107
106 161
107 122
107 126
108 111
108 120
109 112
109 116
109 118
109 121
109 124
110 112
110 119
110 150
111 114
111 122
112 123
113 116
113 122
113 134
114 122
114 125
114 128
114 129
114 197
115 117
115 119
115 123
115 125
115 183
116 120
116 121
116 123
116 128
116 151
117 128
118 125
118 182
120 124
120 139
120 193
121 129
122 124
122 203
123 124
124 128
125 136
129 133
130 135
130 143
130 151
130 164
130 167
131 135
131 136
131 142
131 146
131 148
131 149
131 154
131 157
131 168
131 169
131 181
132 140
132 152
132 161
132 165
133 141
133 145
133 148
133 149
133 161
133 168
133 206
134 147
134 149
134 153
134 154
135 141
135 150
135 151
135 158
136 145
136 154
136 160
136 170
136 212
137 153
137 157
137 160
137 165
138 148
138 154
138 162
138 164
138 172
139 146
139 150
139 162
139 166
139 167
140 150
140 155
140 163
141 150
141 151
141 152
141 161
141 162
141 164
141 168
142 153
142 154
142 159
142 167
142 170
143 149
143 150
143 156
143 172
144 145
144 158
145 147
145 158
145 165
146 147
146 150
146 164
146 179
147 151
147 154
147 160
147 165
147 169
147 171
148 153
148 157
148 161
148 215
149 154
149 155
149 157
149 170
149 198
150 166
151 154
151 160
151 162
151 169
151 170
151 172
152 153
152 154
152 155
152 167
152 168
153 166
153 169
153 171
153 189
155 164
155 166
156 164
156 202
157 158
157 164
157 170
158 169
158 191
159 162
159 167
159 170
160 162
160 164
160 166
161 168
161 172
163 205
164 166
164 169
164 213
165 168
165 170
166 167
166 172
167 169
168 189
169 172
170 171
171 197
171 201
172 182
173 176
173 182
173 183
173 195
173 199
173 202
173 203
173 207
174 182
174 192
174 207
174 211
175 176
175 177
175 193
175 208
175 209
175 214
176 185
176 205
176 212
177 189
177 190
177 191
177 196
177 197
177 201
177 204
177 212
177 213
178 186
178 192
178 195
178 199
178 202
178 203
178 206
178 207
178 210
179 184
179 185
179 187
179 192
179 204
180 182
180 190
180 199
180 203
180 207
180 213
180 214
181 182
181 185
181 188
181 189
181 190
181 201
181 205
181 207
182 195
182 197
182 198
182 206
182 209
182 210
183 202
184 187
184 192
184 197
184 200
184 201
184 205
185 186
185 210
186 195
186 203
186 210
186 211
187 200
187 206
187 207
188 201
189 191
189 193
189 203
189 205
189 209
190 194
190 197
190 202
191 196
191 200
191 201
191 203
191 215
192 197
192 198
192 199
192 207
192 215
193 195
193 197
193 206
193 214
194 204
194 211
194 215
195 201
195 213
196 205
196 206
196 214
196 215
197 199
197 200
197 204
197 214
198 201
198 203
198 206
198 209
198 211
199 201
199 209
199 210
200 201
200 203
201 209
201 212
202 210
202 214
203 212
204 210
205 213
205 215
206 210
206 215
207 209
210 213
212 213
213 215
