0 8
0 11
0 16
0 18
0 20
0 46
0 103
1 2
1 7
1 9
1 16
1 39
1 58
2 6
2 9
2 10
2 13
2 16
2 19
2 55
2 119
3 6
3 7
3 13
3 15
3 20
3 128
4 7
4 8
4 9
4 11
4 13
4 15
4 16
4 17
4 162
5 6
5 8
5 9
5 10
5 13
5 23
5 53
5 60
5 170
6 20
6 21
7 9
7 13
7 14
7 100
7 149
8 15
8 58
8 84
8 117
9 12
9 15
10 11
10 19
10 83
11 16
11 20
11 21
11 35
12 13
12 16
12 42
13 20
13 83
15 18
15 143
15 148
15 159
16 42
16 107
16 147
16 166
18 57
19 21
19 47
19 50
19 90
19 176
21 92
22 23
22 26
22 39
22 44
22 48
22 60
23 25
23 44
23 48
23 96
23 134
23 149
24 30
24 31
24 33
24 36
24 37
24 39
24 48
24 151
25 27
25 163
26 32
26 33
26 39
26 40
26 42
26 48
26 79
26 132
27 36
27 38
27 40
27 112
27 142
28 29
28 30
28 35
28 38
28 43
28 44
29 30
29 31
29 38
29 40
29 43
30 34
30 38
30 39
30 164
31 37
31 39
31 42
32 36
32 37
32 40
32 48
33 35
33 41
34 36
34 44
34 47
34 48
34 102
35 48
36 37
36 43
36 45
36 133
37 47
37 109
37 179
38 39
38 43
38 44
38 45
38 46
38 135
39 40
39 43
39 46
39 48
39 96
39 162
40 41
40 43
40 45
40 48
41 44
41 78
41 105
41 162
42 43
42 45
42 47
42 137
43 46
43 48
43 65
43 122
44 45
44 131
45 48
45 71
45 117
46 88
46 143
47 170
47 176
49 52
49 61
49 65
49 67
49 68
49 75
49 77
49 78
49 80
49 179
50 52
50 54
50 55
50 59
50 62
50 64
50 69
50 70
50 72
50 75
50 77
50 80
51 58
51 63
51 65
51 67
51 70
51 79
52 64
52 65
52 71
52 76
52 77
52 103
52 123
52 139
53 58
53 60
53 63
53 69
53 70
53 74
53 75
53 87
53 137
54 61
54 67
54 74
54 75
54 77
54 86
54 90
54 121
55 57
55 64
55 75
55 77
55 80
55 81
55 114
56 60
56 64
56 68
56 74
56 77
56 80
56 156
56 170
57 60
57 67
57 68
57 70
57 74
58 59
58 65
58 66
58 70
58 82
59 65
59 78
60 62
60 67
60 74
60 79
60 81
61 70
61 74
62 64
62 67
62 69
62 70
62 73
62 74
63 67
63 69
63 72
63 74
63 82
63 105
63 138
64 65
64 66
64 69
64 70
64 81
65 67
66 67
66 71
66 170
67 68
67 70
67 81
68 72
68 76
68 81
68 173
69 71
69 74
69 79
69 80
70 74
70 76
71 72
71 79
71 80
71 81
72 79
72 96
73 76
73 104
74 77
74 80
75 76
75 81
76 80
76 81
77 79
77 81
78 81
78 117
78 124
80 83
80 92
80 142
81 85
81 156
81 157
81 174
82 115
83 84
83 95
83 96
83 101
83 105
83 110
83 112
83 118
83 173
84 92
84 93
84 96
84 102
84 104
84 107
84 109
84 111
84 122
84 123
85 86
85 87
85 97
85 101
85 108
85 112
85 119
85 124
86 90
86 92
86 99
86 103
86 108
86 111
86 112
86 116
86 117
86 125
87 93
87 94
87 97
87 106
87 107
87 108
87 118
87 125
88 90
88 94
88 95
88 107
88 108
88 109
88 113
88 114
88 117
88 121
88 123
88 124
88 142
89 96
89 99
89 100
89 103
89 106
89 111
89 113
89 119
89 120
89 121
89 124
90 104
90 105
90 107
90 111
90 115
90 116
90 123
90 144
91 92
91 99
91 103
91 108
91 112
91 117
91 119
91 122
91 123
91 125
91 136
92 98
92 104
92 105
92 108
92 115
92 118
93 116
93 117
93 118
93 120
94 102
94 109
94 110
94 112
94 116
94 123
95 98
95 99
95 113
95 121
96 97
96 104
96 118
96 120
96 122
97 101
97 104
97 106
97 111
97 113
97 115
97 116
97 124
97 137
98 104
98 106
98 110
98 112
98 113
98 115
98 125
99 102
99 103
99 104
99 105
99 106
99 110
99 112
99 115
99 116
99 120
99 123
99 124
100 101
100 109
100 113
100 120
100 121
101 103
101 107
101 108
101 109
101 117
101 118
101 125
101 144
102 118
102 120
102 149
103 104
103 109
103 110
103 111
103 117
103 124
104 107
104 111
104 122
105 114
105 117
105 123
105 124
106 119
106 120
106 121
106 124
106 163
107 111
107 115
107 116
107 123
107 125
108 111
108 114
108 117
108 124
109 112
109 119
109 124
110 115
110 118
111 113
111 115
111 120
111 123
111 172
112 115
112 119
112 174
113 115
113 120
113 122
113 123
114 115
114 124
114 173
115 118
115 120
115 121
115 123
115 124
116 122
116 124
117 119
117 121
117 122
117 123
118 119
118 123
118 125
119 121
119 122
119 124
119 132
120 123
120 125
121 141
121 148
121 172
122 172
125 164
126 134
126 138
126 141
126 160
126 161
126 164
126 167
126 178
127 128
127 133
127 134
127 135
127 142
127 144
127 150
127 154
127 165
127 169
127 173
127 174
128 143
128 146
128 150
128 155
128 158
128 163
128 168
128 169
128 171
128 173
129 140
129 144
129 145
129 150
129 153
129 161
129 164
129 170
129 179
130 133
130 137
130 140
130 145
130 150
130 158
130 170
130 171
130 173
131 135
131 139
131 145
131 147
131 148
131 153
131 166
131 167
131 175
132 136
132 142
132 143
132 149
132 150
132 159
132 160
132 161
132 163
132 164
132 170
132 178
133 137
133 138
133 143
133 151
133 152
133 157
133 159
133 161
133 162
133 167
133 168
133 169
133 170
133 172
133 176
134 144
134 146
134 159
134 162
134 168
135 141
135 142
135 153
135 155
135 159
135 161
135 171
135 174
135 177
135 178
136 140
136 144
136 148
136 151
136 159
136 163
136 165
136 166
136 173
136 178
137 141
137 143
137 148
137 150
137 152
137 154
137 156
137 170
137 176
137 178
138 140
138 147
138 150
138 159
138 168
138 170
138 171
138 173
138 177
138 178
139 141
139 142
139 150
139 157
139 159
139 162
139 173
139 175
139 178
140 141
140 145
140 151
140 153
140 159
140 167
141 147
141 150
141 154
141 158
141 162
141 163
141 173
141 176
141 177
141 179
142 144
142 145
142 162
142 164
142 168
142 173
142 176
143 144
143 148
143 154
143 159
143 161
143 164
143 167
143 174
144 145
144 152
144 155
144 163
144 165
144 166
144 168
144 175
145 146
145 148
145 154
145 157
145 161
145 163
145 168
145 170
145 174
145 177
145 178
146 149
146 154
146 156
146 159
146 160
146 163
146 170
146 172
146 173
146 178
147 153
147 154
147 155
147 161
147 168
147 172
147 177
147 178
148 149
148 151
148 152
148 153
148 154
148 160
148 167
148 168
148 176
148 178
149 150
149 154
149 159
149 162
149 165
149 166
149 176
150 155
150 158
150 166
150 167
150 168
150 171
150 172
150 177
150 179
151 162
151 164
151 168
151 172
151 175
151 176
151 178
152 153
152 157
152 166
152 167
152 168
152 174
153 174
154 157
154 161
154 163
154 165
154 174
155 165
155 172
155 176
156 159
156 160
156 162
156 166
156 168
156 169
156 170
156 175
156 179
157 158
157 160
157 167
157 171
157 173
157 176
157 179
158 165
158 172
158 174
158 178
159 160
159 169
159 174
159 177
160 162
160 167
160 172
160 176
160 177
160 178
161 164
161 167
161 170
161 172
162 168
162 174
162 178
163 167
163 176
163 177
164 173
164 174
164 179
165 167
165 175
166 167
166 168
166 172
166 177
167 174
167 178
168 169
168 174
169 171
169 177
170 174
170 177
170 178
171 176
172 179
173 175
174 176
175 177
177 178
