180 890
9 12 17 19 21 47 104
3 8 10 17 40 59
2 7 10 11 14 17 20 56 120
7 8 14 16 21 129
8 9 10 12 14 16 17 18 163
7 9 10 11 14 24 54 61 171
3 4 6 21 22
2 4 5 10 14 15 101 150
1 5 6 16 59 85 118
2 3 5 6 8 13 16
3 6 12 20 84
1 5 11 17 21 22 36
10 14 17 43
3 4 5 6 8 13 21 84
8
4 5 9 10 19 144 149 160
1 2 3 5 12 13 43 108 148 167
5
1 16 58
3 11 22 48 51 91 177
1 4 7 12 14
7 12 20 93
24 27 40 45 49 61
6 23 26 45 49 97 135 150
31 32 34 37 38 40 49 152
24 28 164
23 33 34 40 41 43 49 80 133
26 37 39 41 113 143
30 31 36 39 44 45
29 31 32 39 41 44
25 29 30 35 39 40 165
25 30 38 40 43
27 37 38 41 49
25 27 36 42
31 37 45 48 49 103
12 29 34 49
25 28 33 35 38 44 46 134
25 32 33 37 48 110 180
28 29 30 31 40 44 45 46 47 136
2 23 25 27 31 32 39 41 44 47 49 97 163
27 28 30 33 40 42 44 46 49
34 41 45 79 106 163
13 17 27 32 44 46 48 138
29 30 37 39 40 41 43 47 49 66 123
23 24 29 35 39 42 46 132
37 39 41 43 45 49 72 118
1 39 40 44 89 144
20 35 38 43 171 177
23 24 25 27 33 35 36 40 41 44 46
53 62 66 68 69 76 78 79 81 180
20 53 55 56 60 63 65 70 71 73 76 78 81
59 64 66 68 71 80
50 51 65 66 72 77 78 104 124 140
6 59 61 64 70 71 75 76 88 138
51 62 68 75 76 78 87 91 122
3 51 58 65 76 78 81 82 115
61 65 69 75 78 81 157 171
19 56 61 68 69 71 75
2 9 52 54 60 66 67 71 83
51 59 66 79
6 23 54 57 58 63 68 75 80 82
50 55 71 75
51 61 65 68 70 71 74 75
52 54 68 70 73 75 83 106 139
51 53 56 57 63 66 67 70 71 82
44 50 52 53 59 60 65 68
59 65 68 72 171
50 52 55 58 61 63 64 66 67 69 71 82
50 57 58 68 73 77 82 174
51 54 63 64 65 72 75 80 81
51 52 54 58 59 62 63 65 68 75 77
46 53 67 70 73 80 81 82
51 64 69 72 80 97
63 77 105
54 55 57 58 61 62 63 64 70 71 78 81
50 51 54 55 56 77 82
53 69 71 74 76 81 82
50 51 53 55 56 57 75 80 82
42 50 60 82 118 125
27 52 61 70 72 73 78
50 51 56 57 70 72 75 77 84 93 143
56 61 65 68 69 72 76 77 78 79 86 157 158 175
59 64 116
11 14 81 85 96 97 102 106 111 113 119 174
9 84 93 94 97 103 105 108 110 112 123 124
82 87 88 98 102 109 113 120 125
55 86 91 93 100 104 109 112 113 117 118 126
54 86 94 95 98 107 108 109 119 126
47 91 95 96 108 109 110 114 115 118 122 124 125 143
97 100 101 104 107 112 114 120 121 122 125
20 55 87 89 105 106 108 112 116 117 124 145
93 100 104 109 113 118 120 123 124 126 137
22 81 85 87 92 99 105 106 109 116 119
85 88 117 118 119 121
88 89 103 110 111 113 117 124
84 89 99 100 114 122
24 40 73 84 85 90 98 105 119 121 123
86 88 97 102 105 107 112 114 116 117 125 138
93 96 105 107 111 113 114 116 126
87 90 92 96 103 104 105 106 107 111 113 116 117 121 124 125
8 90 102 110 114 121 122
84 86 98 101 104 108 109 110 118 119 126 145
35 85 95 100 119 121 150
1 53 87 90 92 100 102 105 110 111 112 118 125
74 85 91 93 97 98 99 100 104 108 112 123
42 64 84 91 93 100 115 118 124 125
88 90 98 99 100 120 121 122 125 164
17 85 88 89 91 102 105 112 116 117 124 126
86 87 88 89 92 93 102 112 115 118 125
38 85 89 95 101 102 104 113 120 125
84 95 99 100 104 116 119
85 87 90 91 98 104 105 108 109 114 116 121 124 173
28 84 86 87 92 95 99 100 110 116 120 175
89 90 96 98 99 101 112 116 121 123 124
56 89 106 109 116 125 174
83 91 93 98 99 100 108 111 112 113 114 115 119 121 122 124 125
87 91 94 95 98 100 108 123 125
9 46 79 87 89 92 94 102 104 106 109 120 122 123 124
84 88 93 94 97 102 103 111 116 120 124 126
3 86 90 92 107 110 113 118 119 122 123 125 133
90 94 97 100 101 103 107 112 114 116 124 126
55 89 90 96 101 107 116 118 120 142 149 173
44 85 92 97 105 114 117 118 120 173
53 85 89 91 92 95 100 106 108 112 114 116 118 119 121
79 86 89 90 98 100 104 106 107 109 110 115 116 117 120
87 88 92 99 102 108 119 121 165
135 139 142 161 162 165 168 179
129 134 135 136 143 145 151 155 166 170 174 175
4 128 144 147 151 156 159 164 169 170 172 174
141 145 146 151 154 162 165 171 180
134 138 141 146 151 159 171 172 174
45 136 140 146 148 149 154 167 168 176
27 120 137 143 144 150 151 160 161 162 164 165 171 179
37 128 131 138 139 144 152 153 158 160 162 163 168 169 170 171 173 177
24 127 128 145 147 160 163 169
39 128 132 142 143 154 156 160 162 172 175 178 179
92 133 141 145 149 152 160 164 166 167 174 179
43 54 98 131 134 142 144 149 151 153 155 157 171 177 179
64 127 134 141 148 151 160 169 171 172 174 178 179
53 132 142 143 151 158 160 163 174 176 179
130 131 137 139 142 146 152 154 160 168
122 127 136 138 140 141 148 151 155 159 163 164 174 177 178 180
28 81 89 128 133 136 140 145 146 163 165 169 174 177
16 47 129 133 134 138 145 149 155 160 162 165 168 175
91 102 128 130 135 137 143 144 146 153 156 164 166 167 169 176
130 131 132 141 143 145 147 149 155 158 162 164 169 171 175 178 179
129 135 146 150 155 157 160 161 164 171 173 174 179
17 132 139 142 154 155 156 162 169 173 178 179
16 122 132 137 138 144 146 150 152 153 154 155 161 168 169 177 179
8 24 103 133 147 149 151 155 160 163 166 167 177
128 129 130 131 133 138 139 140 142 150 156 159 167 168 169 172 173 178 180
25 134 137 141 149 163 165 169 173 176 177 179
134 138 145 149 154 158 167 168 169 175
130 132 136 141 148 149 153 175
128 138 142 144 146 147 148 149 150 158 162 164 166 175
129 136 145 148 151 166 173 177
57 82 138 147 160 161 163 167 169 170 171 176 180
82 134 140 146 153 155 159 161 168 172 174 177 180
129 131 142 151 158 166 173 175 179
16 133 134 135 136 137 139 140 141 144 147 150 157 161 170 175 178
127 133 147 149 157 158 160 163 168 173 177 178 179
127 130 133 134 136 144 146 148 155 165 168 171 173
5 40 42 134 135 140 142 143 150 152 157 161 169 175 179
26 107 129 133 137 142 145 146 147 155 168 177 178
31 126 127 130 133 143 144 152 162 174 175 180
128 137 145 150 155 156 159 168 176
17 132 137 145 150 151 153 157 168 169 173 178
127 132 134 141 144 149 151 153 158 161 162 164 166 167 175 179
129 134 135 139 143 145 146 148 149 151 152 153 157 163 167 170 175
128 129 134 157 160 169 172 178
6 48 57 67 130 131 133 134 138 139 146 147 157 162 175 178 179
129 131 136 139 151 158 170 177
112 122 123 134 147 148 151 152 156 159 161 162 167 180
69 84 115 128 129 131 137 139 140 142 143 147 158 165 176
82 113 128 136 144 146 153 154 155 159 160 163 165 168 169 171 177
132 140 145 152 157 166 174 178
20 48 134 138 142 143 149 150 152 156 158 161 164 172 175
136 139 142 146 148 151 160 161 164 167 170 171 176 179
127 133 136 137 138 139 140 146 147 148 149 152 159 161 163 168 171 178
38 50 130 142 151 157 158 165 173
