184 1952
3 10 15 17 19 20 24 25 27 29 36 37 38 41 42 44 45 54 60 67 70 74 80 161
3 4 5 8 11 12 18 22 27 28 33 35 38 43 45 49 50 53 54 57 61 64 66 69 72 78 79 173
1 2 4 5 6 8 9 10 13 14 17 19 21 23 26 29 37 40 43 45 50 53 58 64 74 75 76
2 3 9 11 13 20 22 23 24 26 30 32 46 47 54 56 58 64 71 76 77 79
2 3 6 8 14 20 23 27 34 39 41 43 48 53 60 62 64 68 72 74 78
3 5 12 13 14 17 18 20 23 34 38 41 42 44 46 48 50 53 56 57 58 60 61 63 67 69 71 73 76 77 79
8 10 13 16 18 21 24 25 28 36 45 46 51 53 54 57 58 62 66 68 71 74 78
2 3 5 7 12 14 16 17 19 26 27 29 30 32 38 40 41 43 45 46 49 55 61 65 67 69 74 78
3 4 10 15 16 17 18 26 27 29 30 34 41 44 46 58 60 61 63 64 67 69 71 74 75 77
1 3 7 9 13 15 17 23 25 33 35 41 42 45 48 50 52 55 62 63 65 71
2 4 12 16 17 19 20 21 22 31 32 33 36 39 42 46 52 53 55 62 67 72 73 75 77 79
2 6 8 11 14 15 16 22 24 26 27 31 35 40 44 45 46 47 48 51 54 57 59 61 64 68 72 76
3 4 6 7 10 19 20 21 23 25 27 30 31 38 44 46 49 60 61 63 64 65 71 77
3 5 6 8 12 17 19 21 22 28 29 30 32 40 41 44 46 51 53 55 62 64 65 76 78
1 9 10 12 17 24 25 28 31 44 51 56 60 64 73 80
7 8 9 11 12 17 18 19 20 27 29 31 35 39 41 44 47 48 55 57 63 67 68 69 72 74 75 78
1 3 6 8 9 10 11 14 15 16 18 21 26 27 35 39 40 51 52 54 55 58 59 61 62 65 69 77 79
2 6 7 9 16 17 19 26 27 29 33 36 40 41 47 48 55 60 61 67 69 78
1 3 8 11 13 14 16 18 20 22 23 27 33 38 46 47 49 52 53 55 58 62 63 70 71 72 75 76 77
1 4 5 6 11 13 16 19 25 32 37 41 42 44 53 66 71 72 77 80
3 7 11 13 14 17 23 25 26 29 34 35 36 37 48 56 64 66 67 70 74 76 78
2 4 11 12 14 19 26 29 32 33 36 37 38 40 42 44 47 51 52 53 58 60 62 67 68 71 74 76 80
3 4 5 6 10 13 19 21 24 25 29 39 43 44 48 54 57 58 62 67 69 71 72 73 74 76 77 78
1 4 7 12 15 23 29 31 36 42 46 48 54 57 60 70 76 78
1 7 10 13 15 20 21 23 32 38 49 52 59 60 63 64 66 70 72 77
3 4 8 9 12 17 18 21 22 27 28 34 41 42 45 49 51 52 59 60 63 64 69 70 76 78
1 2 5 8 9 12 13 16 17 18 19 26 28 30 32 38 39 40 45 52 55 57 61 62 67 69 75 78 79
2 7 14 15 26 27 31 32 33 37 39 42 43 45 52 53 54 58 61 62 65 70 71 72 73 76 78 79
1 3 8 9 14 16 18 21 22 23 24 34 37 38 39 40 45 46 49 58 65 66 68 70 74 78 79
4 8 9 13 14 27 31 40 43 49 51 56 57 59 61 64 67 68 69 70 73
11 12 13 15 16 24 28 30 36 43 48 50 53 58 60 63 65 71 75
4 8 11 14 20 22 25 27 28 33 35 39 41 43 47 50 53 54 56 57 62 63 67 70 71 72 73 75
2 10 11 18 19 22 28 32 36 39 41 42 44 45 50 68 69 76 80
5 6 9 21 26 29 43 44 46 49 53 58 67 68 70 74 76 78
2 10 12 16 17 21 32 36 38 39 40 47 50 51 52 60 62 63 64 65 66 71
1 7 11 18 21 22 24 31 33 35 41 42 43 44 49 53 56 58 61 63 64 65 68 70 71 73 76
1 3 20 21 22 28 29 38 42 44 48 58 59 60 62 69 71 72 76 77 80
1 2 6 8 13 19 22 25 27 29 35 37 42 43 44 47 49 51 52 60 66 73 74 78 80
5 11 16 17 23 27 28 29 32 33 35 40 43 44 45 49 58 66 69 71 72 74 75 78
3 8 12 14 17 18 22 27 29 30 35 39 43 45 55 58 73 75 78 80
1 5 6 8 9 10 14 16 18 20 26 32 33 36 42 45 51 52 55 58 59 60 64 65 66 78 80
1 6 10 11 20 22 24 26 28 33 36 37 38 41 46 49 55 60 68 75 79
2 3 5 8 23 28 30 31 32 34 36 38 39 40 46 51 59 61 67 69 73 75 76
1 6 9 12 13 14 15 16 20 22 23 33 34 36 37 38 39 45 53 55 57 58 59 63 67 69 70 71 75
1 2 3 7 8 10 12 26 27 28 29 33 39 40 41 44 49 51 54 58 59 62 64 75 80
4 6 7 8 9 11 12 13 14 19 24 29 34 42 43 51 52 57 59 60 63 68 70 74 77
4 12 16 18 19 22 32 35 38 48 50 52 53 54 58 59 63 64 65 67 69 70 73 74 78
5 6 10 12 16 18 21 23 24 31 37 47 49 53 57 61 65 70 71 75 76 78 80
2 8 13 19 25 26 29 30 34 36 38 39 42 45 48 50 51 58 64 66 67 71 73 76 77 78 79
2 3 6 10 31 32 33 35 47 49 53 63 66 68 69 80
7 12 14 15 17 22 26 30 35 38 41 43 45 46 49 52 53 60 64 68 72
10 11 17 19 22 25 26 27 28 35 38 41 46 47 51 53 56 57 58 59 61 64 65 66 68 69 71 75 80
2 3 5 6 7 11 14 19 20 22 28 31 32 34 36 44 47 48 50 51 52 55 59 61 65 66 67 68 76 77 80
1 2 4 7 12 17 23 24 28 32 45 47 58 60 61 62 66 67 68 69 78
8 10 11 14 16 17 18 19 27 40 41 42 44 53 64 66 67 68 70 74 75 78 79
4 6 15 21 30 32 36 52 57 60 61 72 78
2 6 7 12 16 23 24 27 30 32 44 46 48 52 56 59 63 65 72 74 78
3 4 6 7 9 17 19 22 23 28 29 31 34 36 37 39 40 41 44 45 47 49 52 54 60 61 63 72 73 74 78 79 80
12 17 25 26 30 37 41 43 44 45 46 47 52 53 57 61 64 65 68 69 71 72 75 76 77 78
1 5 6 9 13 15 18 22 24 25 26 31 35 37 38 41 42 46 51 54 56 58 62 66 67 73 75 77
2 6 8 9 12 13 17 18 27 28 30 36 43 48 52 53 54 56 58 59 74 76
5 7 10 11 14 17 19 22 23 27 28 32 35 37 45 54 60 66 71 77 78 80
6 9 10 13 16 19 25 26 31 32 35 36 44 46 47 50 57 58 64 66 67 71 72 74
2 3 4 5 9 12 13 14 15 21 25 26 30 35 36 41 45 47 49 51 52 55 59 63 68 69 71 72 77 78
8 10 13 14 17 28 29 31 35 36 41 47 48 52 53 57 59 69 70 72 73 76 80
2 7 20 21 25 29 35 38 39 41 49 50 52 53 54 55 60 62 63 68 76 77
1 6 8 9 11 16 18 21 22 23 27 30 32 34 43 44 47 49 53 54 55 60 63 71 72 78 79
5 7 12 16 22 29 30 33 34 36 42 46 50 51 52 53 54 55 59 64 66 71 72 73 74 75 77
2 6 8 9 16 17 18 23 26 27 30 33 37 39 43 44 47 50 52 54 59 64 65 73 80
1 19 21 24 25 26 28 29 30 32 34 36 44 46 47 48 55 65 76 77 78 80
4 6 7 9 10 13 19 20 22 23 28 31 32 35 36 37 39 44 48 49 52 59 62 63 64 67 68 73 76
2 5 11 12 16 19 20 23 25 28 32 37 39 51 56 57 58 59 63 64 65 67 68
6 11 15 23 28 30 32 36 38 40 43 47 49 58 60 65 68 69 71 77 79 80
1 3 5 7 8 9 16 21 22 23 29 34 38 39 46 47 55 57 58 61 63 68 76 77 80
3 9 11 16 19 27 31 32 39 40 42 43 44 45 48 52 55 59 60 68
3 4 6 12 14 19 21 22 23 24 26 28 33 34 36 37 43 48 49 53 59 61 65 66 70 71 74 77 78 79
4 6 9 11 13 17 19 20 23 25 37 46 49 53 59 60 62 64 66 68 70 73 74 76 78 79
2 5 7 8 14 16 18 21 23 24 26 27 28 29 34 38 39 40 41 47 48 49 54 55 56 57 58 59 62 64 67 70 76 77 80
2 4 6 11 17 27 28 29 42 49 55 58 67 73 76 77 80
1 15 20 22 33 37 38 40 41 45 48 50 52 53 58 62 65 69 70 73 74 78 79
82 87 92 94 97 106 111 114 115 119 122 124 127 130 133 134 135 137 143 144 145 151 152 172
81 84 85 87 88 94 100 103 116 120 130 132 136 141 142 145 152 157 158 159 184
86 88 90 93 96 97 98 102 109 110 115 117 118 119 121 125 126 128 131 133 135 136 137 139 143 144 145 147 149 150 153 155
82 85 89 95 98 100 101 104 106 111 122 129 138 139 145 147 153 156 157
82 84 86 91 95 97 98 99 104 107 109 114 115 121 123 124 125 126 133 139 141 144 147 150 153 156 158
83 85 90 91 99 103 106 107 109 114 120 124 128 132 135 136 148 151 152 155 159 160
81 82 88 90 93 94 96 98 105 106 109 114 116 119 121 127 130 136 142 148 153
82 83 87 92 94 97 98 99 100 101 102 103 109 110 117 118 122 124 126 128 129 132 138 139 140 143 144 146 148 154 155
84 93 98 100 102 103 106 110 111 115 118 126 132 136 140 144 145 148 149 151 157 159 160
83 86 87 92 94 100 112 113 123 127 129 131 134 141 147 148 149 152 158
85 86 92 95 98 99 100 103 106 107 108 109 113 131 137 138 139 143 148 149 150 151 156 160
81 88 90 91 93 97 100 108 113 117 118 123 127 136 141 142 147 149 151 154 156
83 87 89 92 95 97 102 105 111 113 115 122 125 129 130 131 133 136 148 149 151 153 155 157 158 160
81 82 87 88 90 95 96 98 99 110 112 122 128 129 131 132 135 137 138 139 142 147 149 150 153 155
84 85 91 93 94 98 101 104 108 113 114 118 119 120 123 128 131 137 138 143 148 150 153 154 155 157
83 87 94 98 99 102 108 110 116 121 125 132 138 139 141 143 144 151 154 157
81 83 85 88 92 93 99 106 116 119 123 124 126 133 134 136 144 147 148 149 153 154
83 84 85 87 88 89 91 94 95 96 103 113 115 117 120 122 123 125 129 134 140 146 150
85 86 88 91 94 96 97 102 104 112 114 115 117 129 131 132 137 138 142 144 146 149 160
82 84 88 89 90 91 92 101 103 106 108 109 110 113 114 115 119 120 122 126 128 129 131 133 137 139 140 142 145
84 88 95 100 103 104 107 109 113 134 143 145 148 158
83 88 89 93 96 99 116 126 131 132 137 139 140 144 145 146 149 151 152 156 157 159
82 86 88 89 91 98 100 101 110 111 112 114 120 122 124 128 131 133 135 136 137 139 143 144 147 154 158 160
84 85 95 99 101 108 109 110 117 123 125 126 130 131 141 145 149 153 158
87 93 106 107 123 125 128 132 134 135 138 143 144 146 150 153 156 157 160
81 84 86 87 89 91 97 100 105 107 108 112 115 120 127 128 129 130 133 135 138 147 149 150 153 155 160
85 86 91 101 105 106 108 109 110 111 113 115 116 117 119 120 121 128 129 132 135 138 140 141 144 148 155 156 160
91 92 95 96 100 104 106 107 115 120 123 125 128 129 138 139 141 142 143 144 145 146 148 153 156 157
83 85 86 87 88 91 100 101 104 107 110 118 123 125 126 127 128 137 145 146 147 151 156 160
83 88 89 94 96 100 103 104 107 109 113 117 122 123 126 132 136 141 146 148 149 151 159
81 84 89 93 103 107 112 113 115 116 117 121 122 123 130 131 132 137 144 145 157
90 94 99 103 106 111 113 114 118 119 120 132 133 140 144 149 154 156 159
90 91 92 93 95 98 100 101 107 110 111 112 114 116 118 120 122 127 129 130 131 135 138 140 144 149 150 154 160
81 85 86 87 95 99 100 103 112 113 117 118 119 123 124 125 129 130 141 143 144 154 155
81 83 85 89 93 98 99 100 106 107 108 111 116 121 126 129 136 142 147 148 158 159
82 87 96 97 102 107 111 113 115 117 118 119 120 121 122 131 137 138 139 141 151 154 158 160
83 88 92 98 99 104 107 110 111 114 116 119 120 121 123 127 128 130 132 137 138 140 141 144 145 149 153 154
83 88 89 92 95 109 112 113 114 116 125 129 133 134 135 140 141 142 152 153
81 83 87 95 97 100 107 112 114 116 117 122 132 135 137 138 141 142 144 150 155 156
82 86 95 98 100 103 106 107 108 112 113 116 117 121 124 132 134 137 139 141 144 153 156 159
83 85 87 96 107 111 115 116 117 120 125 126 135 136 137 138 139 140 141 142 144 149 150 151 152 157
81 84 88 93 94 98 100 103 110 111 113 116 119 125 128 134 135 141 145 147 148 150 151 155 158
85 90 92 95 97 98 104 105 108 109 110 111 114 117 124 125 129 139 142 146 147 150 154 157 159 160
81 85 86 88 97 103 114 120 123 125 128 130 136 138 142 145 147 148 153
83 85 93 96 98 104 105 108 109 114 118 121 122 123 124 127 131 132 136 141 146 149 150 152 156 157 158 159
83 85 88 89 97 100 102 104 109 110 115 121 131 143 146 155 157 158
81 87 90 92 106 109 113 117 125 129 131 135 139 143 157 159
83 86 88 94 95 100 103 105 106 107 108 109 117 122 124 129 132 136 143 144 149 150 155 158
84 88 90 93 94 98 99 100 106 107 108 113 114 115 118 123 127 128 134 136 138 139 142 146 148 149 155 156 157 158
81 82 87 93 104 106 111 113 114 117 124 134 139 143 146 148 149 153 160
83 90 91 93 94 95 99 100 102 103 104 111 113 116 125 126 127 133 139 141 142 144 146 148 153 155 159 160
82 86 88 89 94 96 99 102 105 107 110 111 112 117 119 120 125 128 134 135 136 139 143 144 147 152 153 155 158 159 160
81 83 85 93 97 100 103 106 112 118 131 139 142 143 146 153
81 90 97 98 101 105 118 120 122 129 130 132 136 141 143 145 146 156 157 160
81 83 86 94 103 105 106 107 113 118 119 121 122 127 132 139 142 144 146 148 149 151 152 155 158
82 83 86 87 89 92 93 97 103 110 115 121 124 125 128 129 132 134 139 143 145 152 156
81 83 91 94 95 99 100 102 103 109 111 116 117 119 120 121 138 139 141 143 148 149 151 153 155
84 88 91 94 95 96 99 105 106 107 108 113 116 117 119 121 124 129 137 146 149 150 151 152 156
83 84 85 88 91 94 96 100 102 103 108 116 120 121 123 127 129 130 131 132 133 135 136 137 145 146 153
88 89 98 100 102 107 112 113 117 118 121 141 143 149 152 156 158
82 85 90 92 96 104 107 108 110 114 116 117 118 119 120 121 122 125 131 134 137 140 145 146 147 148 151 153 157 158 159
82 87 92 94 99 100 108 115 118 119 121 123 124 129 131 133 135 143 148 154 155 156 159
81 83 88 91 95 96 101 103 105 108 114 126 127 128 130 132 133 134 136 137 140 142 144 149 150 156
81 83 85 88 89 96 97 99 102 103 105 107 108 111 112 113 114 117 119 120 121 128 131 132 135 143 145 147 152 153 155 157 158 160
81 82 83 84 89 100 101 102 104 108 109 111 117 122 124 134 136 139 141 144 146 148 150 152 155
88 98 99 102 105 108 109 110 123 125 126 129 130 131 133 134 135 138 139 141 145 147 149 151 158
83 84 85 90 92 94 97 103 106 109 115 122 123 124 132 141 144 146 152 153 155 156 159
86 87 88 89 90 91 93 95 97 101 107 108 110 115 122 124 129 130 131 135 137 141 142 145 151 152 155 156 158 159 160
83 89 90 91 92 93 94 97 99 102 104 106 110 112 113 117 121 125 128 129 130 135 137 138 140 143 146 153 154 156 158
83 85 91 94 95 98 105 106 113 119 121 122 123 125 128 138 143 145 152 153 159
81 86 89 91 92 93 96 102 109 110 116 121 122 135 137 138 141 146 148 152
81 82 86 90 102 118 121 125 132 135 136 138 140 144 145 147 148 150 151 153 154
83 84 85 87 93 94 95 97 104 105 106 108 117 118 120 124 130 131 132 133 137 139 141 144 147 149 150 152
88 92 95 96 97 103 112 113 114 116 117 123 142 149 152 155 158
83 86 88 93 94 95 106 107 114 119 122 126 128 129 131 132 135 137 142 144 145 147 148 154 157 158 160
84 85 91 92 102 105 107 108 109 112 119 120 125 129 134 136 138 140 142 143 147 148 149 158
82 84 89 93 95 96 102 105 108 111 121 123 125 126 127 129 134 141 144 155
82 85 90 93 101 103 104 115 116 122 125 126 128 129 132 135 140 141 144 146 148 149 154 155 156 160
82 86 89 102 110 112 115 120 123 125 127 131 132 141 142 147 148 150 160
86 89 91 93 99 103 105 106 107 109 113 116 123 130 131 132 134 144 148 155 158 159
1 162
161 163
162 164
163 165
164 166
165 167
166 168
167 169
168 170
169 171
170 172
81 171
2 174
173 175
174 176
175 177
176 178
177 179
178 180
179 181
180 182
181 183
182 184
82 183
